21
unknown molecule
H  -1.501190 -1.519860 -0.513762
O  -0.174297 -2.527054 -2.016813
C   0.271710 -1.618957 -1.448637
C   0.945835 -0.686815 -1.002094
H   1.218503 -1.871711 -0.918997
H   3.736828 -0.225765 -2.008710
C  -1.791232  0.972170  1.682716
C   0.039696 -0.126729 -0.070301
H  -2.508132  1.465749  2.442760
C   0.370928  0.979295  0.671108
O  -2.639508  1.535633  2.596872
H   1.353767  1.467854  0.502843
O   2.449540  0.917750 -0.425410
C  -1.219575 -0.736893  0.089925
C  -2.106778 -0.189469  0.995602
H   0.637041 -0.858023 -2.123617
H  -3.166047 -0.550363  1.162529
O   3.014783 -0.587776 -2.003307
C  -0.547538  1.626606  1.606420
H  -0.323129  2.515397  2.087252
C   2.136772 -0.127235 -1.165929
