21
acetylsalicylic close decoy
C   0.117619 -0.080000  0.000000
C  -0.582381  1.132000  0.000000
C  -1.982381  1.132000  0.000000
C  -2.682381 -0.080000  0.000000
C  -1.982381 -1.292000  0.000000
C  -0.582381 -1.292000  0.000000
C   1.527619 -0.100000  0.020000
C   2.187619  1.105000 -0.010000
C   1.672619 -1.365000  0.030000
O   2.167619 -2.470000  0.015000
O   3.512619  1.100000 -0.020000
O   1.477619  2.205000  0.015000
O  -4.072381 -0.080000  0.000000
H  -0.032381  2.070000  0.000000
H  -2.532381  2.070000  0.000000
H  -3.762381 -0.080000  0.000000
H  -2.532381 -2.230000  0.000000
H  -0.032381 -2.230000  0.000000
H   2.162619 -0.745000  0.940000
H   2.112619 -0.710000 -0.935000
H   3.907619  1.930000  0.020000
