21
acetylsalicylic broader decoy
C   0.117619 -0.080000  0.120000
C  -0.662381  1.172000 -0.050000
C  -2.092381  1.102000  0.070000
C  -2.722381 -0.170000 -0.060000
C  -1.912381 -1.342000  0.050000
C  -0.522381 -1.222000 -0.040000
C   1.597619  0.100000  0.030000
C   2.017619  1.310000  0.080000
C   1.877619 -1.480000 -0.070000
O   2.427619 -2.640000 -0.030000
O   3.327619  1.250000  0.050000
O   1.297619  2.330000 -0.060000
O  -4.212381 -0.130000  0.000000
H  -0.032381  2.070000  0.000000
H  -2.532381  2.070000  0.000000
H  -3.762381 -0.080000  0.000000
H  -2.532381 -2.230000  0.000000
H  -0.032381 -2.230000  0.000000
H   2.307619 -0.870000  1.000000
H   2.297619 -0.860000 -1.000000
H   3.717619  2.080000  0.070000
