15
molecule_342
O  -1.441228 -0.009577 -0.489335
N  -1.099630  0.885196 -0.248010
F  -0.238269 -0.150976 -0.777219
C  -1.508105 -1.805458 -0.203083
H   0.041445  3.721162 -0.392627
H   1.662266 -0.691549  0.197275
Cl  2.290070 -0.462197 -0.691384
N   2.237083  2.066032  1.035880
O  -2.545731  0.236244  0.826473
H  -0.491596 -0.749942  1.049940
N   1.514987 -1.242040  0.443020
H  -3.342523 -2.639709 -0.285625
N   1.330571  1.008379 -0.382432
O   0.098415 -0.033971  0.921000
S   1.492245 -0.131593 -1.003874
