21
molecule_097
H  -0.197533  0.534944 -0.100617
O   0.319026 -1.003274 -0.008502
H  -0.481000 -1.924705 -0.850583
C   0.003694  2.338211  1.384344
S  -0.933182 -1.825126 -0.925496
H   0.503940 -1.132912 -0.294112
Cl  0.173006  2.568116 -0.145941
S   0.883523  1.368600  0.418193
F  -1.013948 -0.171349  0.817264
H   2.477943  1.096948 -0.864250
H   1.158941  0.095246  1.155306
S   1.031497  1.816457 -0.898715
H  -1.647316 -2.522902  1.097489
F  -1.392987 -2.104384 -1.195811
F  -1.723759 -1.250576 -0.730384
C  -0.286625  0.596775 -0.226265
Cl -0.428928  0.957917  0.811198
S   0.133219  0.635630 -0.391037
H   0.632477 -0.665950  0.691717
H  -0.816464 -1.381676 -0.508021
O   1.604475  1.974008  0.764223
