18
molecule_289
F   2.299675 -0.955593 -1.106632
C  -2.697216 -0.257165  0.958385
H  -0.646834 -3.168599 -0.362351
F  -0.522407  2.709224 -0.573823
H   2.152738 -2.118791 -0.407042
C  -0.362441  0.442291 -0.219790
S  -0.031815  1.807724  0.442629
H  -0.862448 -0.956606  0.228017
H  -0.676966 -1.652362 -0.502840
F  -0.582068  2.818717  0.309146
N   1.024576  0.741188  0.100969
Cl  0.980618  0.756652 -0.261467
O   0.724420 -0.837773 -0.230347
O   2.662252 -1.257604  0.044857
H  -1.337273 -0.546412  0.907034
F  -0.714137  0.857131  0.845561
C   0.201727  3.137294  0.041925
H  -1.612402 -1.519316 -0.214232
