15
molecule_390
H   0.483219 -0.810019 -0.405269
N   1.463916 -1.263367  0.120337
O   1.884657  0.404011 -0.377264
H  -0.336024 -2.024916  0.899430
S  -0.105590  1.623531 -0.821053
Cl  0.367162  2.408936  0.079162
C  -0.760862 -1.006608 -0.376137
H   2.026338 -2.944608  0.454136
N  -2.830705  1.364266  0.171604
H   1.720463  0.430893  0.023404
F  -0.431701  3.355630  0.556600
C  -0.753393 -2.797788 -0.218197
S  -0.028470  1.335202 -0.226073
S  -4.846031  0.283082  0.639902
F   2.147022 -0.358246 -0.520584
