19
molecule_393
Cl -0.130882  0.099048 -1.696835
Cl -0.332971 -0.068360 -1.889515
N   0.481479 -0.166639 -0.231641
Cl -1.560658 -0.003588 -1.180247
O   2.489212 -0.698366  0.373870
S   0.806655 -1.118652  0.932711
H   0.413867 -1.032529 -0.437530
S   0.853880 -0.859031  0.591585
O  -2.106677  2.194625  0.194080
H  -0.109308  2.169386  1.657937
O  -0.464630  0.946826 -0.152944
C   0.916992  0.102099 -0.354614
H   2.113050 -0.415956  1.554044
F  -1.524003 -0.400359 -0.932641
H   0.114894  0.822671 -0.867937
Cl -1.113995 -0.325365 -0.372762
H  -1.484704  0.189271  2.533486
F  -1.289676 -1.478893  0.867135
O   1.927475  0.043810 -0.588182
