20
molecule_149
Cl -0.557158 -1.183320  0.759010
H  -2.239440  3.654617 -2.159413
C  -0.873940  0.171575 -1.187356
F   0.773805 -0.073422 -0.073396
Cl -1.011115  1.725028 -0.601367
C  -0.145022 -1.262723  2.470604
F   0.209743  0.223076 -1.502279
N  -0.218621 -2.048732  1.172162
O   0.661062  0.511965 -0.887271
H   1.110728 -1.009897 -1.841564
O   1.356732 -2.103688  0.861435
Cl  3.000469  1.223555  0.169332
O  -0.178501  0.290891 -0.946867
F   0.225494 -0.984616  0.516028
Cl  1.158683 -1.025772  2.438155
H  -1.267894  0.949086 -0.868250
H  -1.373915 -0.934389  0.241191
N  -0.645712  1.164183 -1.341367
H  -0.166021 -1.367321  0.674278
H   0.180623  2.079902  2.106934
