21
molecule_105
H   2.435030  0.904155  0.485712
H  -0.811837 -2.114893 -0.015653
H  -1.367819 -0.532641  0.947164
N   1.736210  0.792728  0.028955
S   0.560112 -2.288752 -0.051938
S   0.484356  1.426085  0.495778
O   0.766826 -0.324837 -0.079761
Cl  0.077615 -1.538046  0.030621
S  -0.555829 -2.290229 -0.576046
N   0.077275  1.147902 -0.613320
Cl -0.305019  0.060063  0.124256
H   2.007101 -0.866994  0.951677
S  -1.743427  2.580059 -0.127709
N  -0.207989  1.356014 -1.155746
N  -0.524588 -1.649504 -1.216136
O   0.620817  0.295258  0.370353
O  -0.494498  0.935416 -1.193232
F   1.024977  1.899512  1.359039
F  -0.821154  1.642171  0.200053
F  -1.202081  0.954607 -0.232684
C  -1.756077 -2.388075  0.268617
