17
molecule_214
N   3.634651 -0.080697  0.200497
H  -0.557524  3.637045  0.406807
Cl -2.741898 -1.220821 -0.167891
S   1.253404 -1.316912  0.330888
F   0.610559  0.616440 -0.570607
F   0.901995 -0.547603  0.219519
Cl -0.380330 -0.236459 -0.091425
C   0.967522  1.284934 -0.714315
N  -0.259832  3.754372  0.251531
H  -0.486418 -1.053887  0.610578
H   0.459165 -1.462767  0.191730
H   0.516896  0.991608 -0.144733
C   0.201276 -0.359039  0.355821
O  -0.751585 -0.863659  0.419510
F   0.106913  2.007009  0.050349
H  -2.576108 -1.693261 -0.558149
H  -0.898687 -3.456302 -0.790109
