15
molecule_371
H  -0.989069  1.630797  0.091053
N  -4.263903  1.291048 -1.615726
Cl  2.519925  1.350203 -0.306235
N  -0.546734 -0.210902  1.883612
H  -1.861315  0.096844  0.718715
H  -3.687824  0.680135  1.467504
O  -0.172156 -0.903176 -0.850162
S  -0.035900 -0.876793 -0.083872
N   1.054740 -0.495212 -0.062955
C   2.126561 -1.004067  1.043151
H  -0.981931 -0.624138 -0.974816
H   2.266062  1.505292 -0.827529
Cl  6.052079  0.052018  1.069901
H  -3.431260 -1.900003 -1.836590
F   1.950726 -0.592045  0.283950
