16
molecule_245
N   2.543190  0.710983 -0.478298
H  -0.582424 -1.050022 -0.036648
O  -0.670098 -0.596498  0.350651
H   1.189723 -0.979654  0.546884
C  -2.306750  1.180238 -0.297569
H  -2.500912  1.931789  0.473486
N  -2.028802 -0.724240 -0.785376
O   2.250503 -0.653394 -0.761229
N  -0.319032 -3.174298  0.530478
O   1.281074  0.870735 -0.536841
O  -0.201486  2.027722  0.800621
H  -0.883140 -4.170811  0.132117
S   1.487064  4.793314  0.401486
N  -0.940402  1.634196 -0.395533
C   0.107495 -1.631370 -0.180670
S   1.573996 -0.168690  0.236442
