19
molecule_092
C   0.668837 -1.611986  0.597717
S  -1.010873  1.635850  0.346330
N  -1.873146  3.841572 -0.550272
N  -2.314100 -1.914511  0.163194
H  -0.488830  2.484506  0.259699
H   0.281617  2.027565  0.556330
O  -0.270125 -6.127175 -0.281626
O  -0.916111 -0.284787 -0.682556
H  -2.997900 -1.339082 -0.291588
S  -0.334612 -0.438146  0.852005
H  -1.756870 -0.803696 -0.102392
Cl  2.252894  0.569726 -0.362218
S  -1.578453  0.379678 -0.069457
H  -0.298324  2.495943 -0.573918
S   3.573864 -1.630226 -0.595756
H   1.686644  0.348462 -0.188380
S   2.664467  0.643620 -0.748334
N   4.361101  0.372556  0.875421
N  -1.650080 -0.649869  0.795802
