15
molecule_226
N  -1.937546 -0.813938  0.491526
N   1.220360 -0.458654  0.167625
F  -1.983888  1.072878  0.400791
C  -1.242710 -1.775305  0.028375
F   0.448767  0.662320  0.308652
Cl -0.201066 -1.199697 -0.857984
H   0.981459  1.231037 -0.482121
S   1.810548  0.385525 -0.348072
C  -2.335168 -0.951505  0.202196
Cl  1.016124  1.377660 -0.455638
S   3.893271 -0.339150 -1.202144
H  -1.250151  0.039710 -0.110340
S  -0.307452  1.360447  0.574480
O  -1.790710 -0.564669  0.796547
H   1.678161 -0.026658  0.486106
