21
molecule_347
H  -1.185427  2.545665 -0.834658
N   1.243258 -0.373956  0.445123
C  -5.781150  0.918925 -0.015471
H  -4.227167 -1.155046  0.019145
H   2.551261 -1.058177 -1.093137
N  -0.184750  1.045916 -0.848937
H   2.181465 -0.897804  0.238623
H   2.528762 -0.825910 -1.398656
H  -1.817108 -0.227266  0.081177
F  -0.602834 -0.711274 -0.462565
H   0.798864 -0.916409  0.920934
Cl  1.783739 -0.360693  1.731415
H  -0.900466 -1.133265  0.167043
H  -2.914923 -0.714330 -0.826148
O  -1.729265  1.094275  0.785813
H   0.757311  0.384475  0.811212
O   4.539768  0.551323  0.740926
S   3.241168  1.407160  0.280566
S   0.398973 -0.466370  0.700031
Cl  2.768668  1.276911 -0.918398
H  -3.450147 -0.384150 -0.524037
