15
molecule_266
S  -0.972940  0.246359  0.460523
H   3.376809 -0.473635  1.005812
C  -1.556728  1.931764 -0.781490
C   1.617522  1.154146 -0.588586
H  -2.199248 -2.789932  1.680479
Cl -1.003670 -1.442478  1.044897
S  -2.765964 -0.053733 -0.561145
C  -0.033435  0.544930 -0.667949
S   0.377825  1.369063  0.312891
C   0.959220 -0.853789 -1.184974
Cl  0.223528  1.350915 -0.347624
N   4.113415 -3.165102 -0.978490
S  -0.524815  0.017345  0.488038
O   0.757656  0.871198 -0.294719
O  -2.369174  1.292950  0.412337
