17
molecule_295
H  -0.959050 -0.601017  0.196323
N  -2.738359 -0.974375 -1.486858
Cl -1.306061 -0.149189  0.661142
Cl  2.543571 -0.238130 -1.184765
H   2.732535 -0.150901 -0.436340
H   0.463146  0.064678  1.162991
H  -1.230754 -1.353754 -0.136566
O   0.277761  0.361590  0.496044
C  -1.064031  1.144048  0.513425
O  -0.422487  0.856521 -0.298291
S   0.544279 -0.805486  0.060281
Cl  0.660524 -1.162422 -0.062748
H   1.111096 -0.888480 -0.914118
C  -1.042121  0.763833 -0.514582
O   3.220653  2.396676  1.239692
H  -0.198461  0.300053  0.125894
Cl -2.592242  0.436354  0.578476
