20
molecule_006
H  -0.349197 -1.563913 -0.579290
S  -0.685804  0.359569  0.289828
N   0.132347 -0.575968  0.584797
C   0.649980  1.383533 -1.622145
O  -0.144520 -0.922962  1.267717
H   0.151185  2.242454  2.253414
H  -0.320868  0.872363  1.342916
S  -1.738023  0.300496 -0.930015
H  -0.212381  0.602680  0.197535
H  -0.201839 -1.621703  2.032869
Cl  0.628124 -0.857623 -0.503373
F  -0.012288 -2.585659 -1.146210
N  -0.283831 -0.252194 -0.562775
H  -0.518753 -2.308845  0.213209
Cl  0.539539  4.164877 -0.581829
C  -0.553169 -0.370646 -0.851192
S  -0.710357  2.051218 -0.978187
N   1.293472  2.821579  0.622575
H   1.268415 -1.024530 -1.601056
Cl  1.067967 -2.714724  0.551213
