20
molecule_292
S   2.189148  0.757343  1.130208
S  -0.092203 -0.772226  0.619824
N  -0.925665  0.572182  0.010538
H  -0.077098 -0.427629  0.110524
F  -2.875682 -0.630866  0.215164
N  -0.053346 -0.638145 -0.210945
C   2.658495  1.625532  0.842129
H  -1.963296 -1.765725 -1.136043
H  -0.062218  0.867405  0.677192
F  -2.997004 -1.094347 -0.852897
S   1.972444  1.949587 -1.629554
O  -0.666763 -1.174536  1.408282
Cl -1.104980  1.764824 -1.013885
O   0.636080 -2.673436  0.466807
C  -0.213229  2.013462 -0.689657
N   1.372176 -0.404243  0.536506
C  -0.781436 -1.400588 -0.724411
H   1.516182 -0.947330 -0.462776
F  -1.641164 -0.223800 -0.031537
S   3.109558  2.602537  0.734532
