16
molecule_159
H   0.096752 -1.693960 -0.390511
H   1.651919 -0.852226  0.108665
C  -0.367083 -0.838515  0.287033
O  -0.156387  3.013980  0.234272
S  -0.089172  1.159413  0.210103
O   0.493737 -0.835408 -0.458424
H   0.667565 -0.866895 -0.340806
F   0.934528 -1.492880 -0.141000
Cl -0.557700  3.409094 -0.024869
N   1.322296  4.408167 -0.075125
H  -2.311019 -2.356467 -0.011813
C  -2.377076 -0.606613 -0.501206
S  -0.663312 -1.767054  0.314382
Cl  2.315148 -0.220711  0.269828
O  -0.836341 -0.651230  0.195914
H  -0.123853  0.191304  0.323557
