21
molecule_171
H  -2.006241  1.006457  0.229097
Cl  0.105980 -0.569160 -0.335020
F  -1.439760  0.354903  0.529905
F   0.943598  2.001534  2.971812
O  -0.983002  1.485639  0.248950
C   2.980066 -0.391341 -1.119588
S   0.597994  0.776103 -1.876248
Cl  0.942568 -0.151280 -2.784211
H   3.433793  0.274132  0.512168
O  -2.719041 -1.039927  0.718536
H  -1.125358 -1.370115 -1.107293
S   1.525498 -1.072601  0.163867
O   0.785005 -0.585502 -0.311416
Cl -1.835097 -0.865739  0.866808
F  -1.115571 -0.653071  0.298667
N   2.555134  0.619435  1.200045
N   1.495730  0.288273 -1.212178
O  -0.086228 -1.553123 -3.121595
N  -1.133981  0.800768  0.898308
C  -3.460202  0.121468  1.979320
C   0.539113  0.523148  1.250065
