15
molecule_374
S  -0.930776  1.058859 -0.892283
C   0.228754 -0.342595 -0.824905
H  -2.828797 -1.776165  0.024573
H  -1.061890  0.584504 -0.593343
F  -0.010524 -0.259346 -0.247002
H   0.426210  1.069596 -0.239525
N  -0.574814  2.574843  0.181705
O   0.846385  0.882089 -0.080510
H   0.564647 -0.100762  0.072912
S  -0.207548 -2.043404  0.646043
H   0.478606 -0.771205  0.271861
H   1.193275 -0.962300  0.566643
H   0.815588  0.481208  0.407216
N   1.415455 -1.539838  0.899217
H  -0.354572  1.144517 -0.192602
