18
molecule_047
Cl -0.988450 -0.061296 -0.787053
N   1.349340 -0.053549 -0.684863
C   1.896062 -0.157663  0.096546
C  -0.036580 -2.014265 -0.171230
H   1.186786  0.156470  1.040118
O  -0.059936 -0.443443  0.957921
F  -1.331897  0.408154  0.472266
N  -0.801310  0.053324  0.884499
Cl -0.354304  2.432217 -0.023593
N   0.831225  1.396635 -2.418510
S   1.536200 -0.126240  1.075668
N   1.132010  0.389122  1.928613
H  -1.686567  0.458345 -1.899669
H   0.890163 -1.072385 -0.138947
H  -0.453682  0.490426 -0.488362
H  -2.022950  0.544660 -1.321121
F  -0.306720  0.030248  0.499528
N  -0.779390 -2.430759  0.978191
