19
molecule_233
C   1.749108  0.471480 -0.117541
H  -0.993455 -4.811550  0.753075
F   1.233752  0.526517  0.175659
H  -2.750199  2.535327  0.179666
H  -0.544582  3.261480 -1.807793
H  -1.094914 -0.256562  0.126039
S   0.186259 -1.311969  0.284888
N  -3.550492  1.149883  0.135244
O   0.218085 -0.123568  1.171136
H  -0.394725  1.618993  0.613577
H   0.704492  1.789374 -0.467678
S   2.127809 -0.870643  1.158319
H  -0.133746 -2.188141 -0.760161
O   0.248847  1.430311  1.823373
S   1.101121  0.670213 -0.189823
S  -1.227428 -2.577484 -1.134539
S  -1.352094 -0.203541 -0.794584
Cl  2.698533 -0.920098  0.220014
F   1.773628 -0.190024 -1.368872
