17
molecule_335
H   1.291677  1.407621 -0.211916
H  -0.444999 -1.998666 -0.901266
N  -0.766710  0.003817  0.996255
F  -2.031032  0.255882  0.601879
F  -2.059351 -0.115383  0.245897
S  -0.009112  3.140830 -0.815456
H   1.934036 -0.787715  0.379358
Cl -1.569836  0.047810  0.544769
N   3.573277 -2.413184 -1.770164
O  -1.208586 -1.320070  3.896351
H   0.525825  2.343607  0.078365
N  -0.308587 -0.990221 -1.627406
C  -1.753067  0.781141  1.179273
H   1.609879  1.925547  2.190972
S   0.046587 -0.735715 -0.404345
H   0.661920  2.309817 -3.342259
H   0.508079 -3.855116 -1.040309
