16
molecule_330
S  -3.220977 -0.844107  0.632440
O  -0.199002 -1.227627  0.084851
O   2.893925 -0.636426  1.243427
H   0.591145 -0.461541 -1.575588
H   1.459789  1.038526  0.982763
Cl -1.164448  0.579068  0.009628
N  -1.066165  0.251278  0.401105
C  -0.129639  0.192263  1.106936
C   1.900328 -0.803941 -0.568715
S   0.513600 -0.897045 -0.938578
C  -1.426156  1.282824  0.100464
Cl -0.588123  0.406704  1.076515
Cl  0.342543 -0.502504  1.652373
H  -1.777647 -0.597830 -1.943440
H   0.238500  1.827477 -0.502119
H   1.632326  0.392882 -1.762063
