18
molecule_282
H  -1.288297 -0.682421 -0.526471
C   0.498625 -0.303918  0.617374
C  -0.768741  0.194338 -0.276397
H  -1.422652 -0.212441 -0.391602
H  -3.104439  0.617014  0.573277
S  -0.130704 -0.022242  0.055087
S  -0.294623  1.617506 -0.160519
F  -0.257309 -0.025011  0.140020
H   2.471004  0.521359 -0.114817
H   0.354692 -0.928219  0.167574
H  -0.202238 -0.029001 -0.013741
Cl -0.889108 -0.042575 -0.075071
O  -0.734918 -0.312640 -0.107556
H  -0.362450 -0.110334  0.314825
N   1.012957  0.348788  0.002786
H   1.054441 -1.461860 -0.083838
S   1.916773  1.382028 -0.010112
H   2.146987 -0.550371 -0.110820
