21
molecule_071
F   0.861475 -0.208896  0.459324
H  -0.128044 -0.134246 -0.075212
F   0.221060 -2.023762  0.339866
S   0.323273 -1.152670  0.131340
H   0.039068  0.938531  0.053833
C  -2.139359  1.596595 -0.255212
H   0.887462 -1.229114 -0.649482
H  -0.292035 -0.391695 -0.320586
S  -0.617158 -0.232852  0.310518
F  -2.310404 -0.088231 -0.408269
H  -0.879561 -0.020981  0.184422
Cl  0.452706  0.528053 -0.649178
H  -0.967167  0.990105  0.166030
H   0.464741  2.087076 -0.263728
C   0.663307  0.412517  0.272205
F   0.899455 -0.956887  0.558371
N   0.473669 -0.617132 -0.152194
H   0.538915  0.005025 -0.397923
H   0.611149  0.541606 -0.044643
S  -1.012639 -0.592043 -0.053061
Cl  1.910086  0.549001  0.793578
