19
molecule_074
O  -0.220170 -0.447262 -0.619209
H  -0.210640  0.307838  1.398481
S   0.649952 -0.271480 -2.581557
S  -0.439929  1.377102  1.254947
H  -1.249280 -0.054673 -0.998594
N   0.549421  0.444920 -0.496769
S  -1.512468  0.230419  0.973185
S  -0.014721 -1.367071  1.768982
H   0.460628  0.378604  1.231865
S   0.543036 -0.580452 -0.781328
S  -0.896564 -1.116082  0.940159
N  -0.224426  0.513039 -1.716196
H   0.839168 -0.411264  1.431486
H   0.825891 -1.400400 -0.746192
C  -0.114556  1.065154  1.224865
H   0.712798 -0.293031 -0.784978
F   1.056983  0.286947 -0.826400
N  -1.348781  0.357913 -1.063438
C   0.593659  0.979779  0.390691
