16
molecule_278
H   1.277620  0.758545 -0.673177
H   0.095243  0.670486 -0.751812
O  -0.343152  0.018427  1.169903
C  -1.308697 -2.448983 -1.184841
O  -0.271073 -0.315933 -0.910587
C  -0.310631 -0.966425  0.749908
H  -0.303475 -0.927262  0.407288
Cl  0.533636  1.087808  0.382816
H  -0.219308  0.228835  0.540093
S   1.440070 -0.147784  0.763179
N  -3.179496  0.609022 -0.398108
H   1.317047 -0.638606 -1.321167
S   0.003743  0.626119  1.434968
N  -0.540711  0.828381 -0.057281
H  -0.645771  0.332128  1.299240
C   2.454955  0.285243 -1.450422
