20
molecule_031
F   2.364256  1.806154 -1.186018
Cl -1.585587 -0.900816 -0.511335
F  -4.030278 -0.975037  0.720901
C   0.742540 -1.357539 -0.166014
S   0.777644  0.586971 -0.015070
H   3.314630  2.830770  1.316576
H   2.892742 -1.178440  0.038723
Cl -2.978513  0.050597 -0.752160
H  -0.847260 -0.646065 -0.435634
H   1.332231 -0.248635 -0.316355
S   0.442091 -1.893688  1.048793
S  -0.650015  0.894719 -0.311166
F   0.854570  2.774519  0.318238
Cl -2.444952 -1.430882  0.825339
H  -1.118699 -2.564893 -0.251681
C   0.237389  1.441515 -0.441538
H   0.479529  1.117367  0.179088
N  -1.630650  2.267173  0.165050
C   2.236103 -0.666996 -0.323485
C  -0.387770 -1.906795  0.097747
