20
molecule_379
Cl -0.393410 -0.875761 -0.394505
H  -1.102886  1.627482 -0.976633
H   1.825568 -1.181890 -0.506267
H   0.348802  4.487667 -1.659172
C   1.017580  2.104833 -0.414139
Cl  2.351933  3.796772 -1.481327
H  -2.868406 -0.002388  1.385625
Cl  0.618477 -1.725639  0.019146
N  -0.458737 -1.016963 -1.000980
Cl -0.542216 -0.837152  0.093809
H  -3.014478 -3.244194  0.116166
H  -1.241229 -4.649854  0.729674
C  -2.632382 -2.370360 -0.020716
F   1.319169  0.391122 -0.963306
F   1.943883  0.812559  0.071210
N  -0.409091  2.702314 -0.938458
S   0.091559 -2.026026  0.664639
O   0.263308 -0.169757  1.624367
H   1.314339  2.332327  3.209776
S   1.568216 -0.155092  0.441089
