15
molecule_063
H  -1.339070  3.350973 -0.116452
Cl -2.107371  0.354767 -0.188247
N   0.424107  0.700347  0.684808
N  -0.897265 -1.079239 -0.416293
F  -3.390935 -0.368819 -0.431523
O   0.566997 -0.661863 -0.215190
C   0.801043  0.320515  0.790914
H   2.899448 -0.095053 -0.274754
H   0.617637 -0.425377  0.004847
H   1.000338  1.018407  0.200795
C   1.071623 -0.937644 -0.290349
H   0.580161 -0.429986 -0.166580
N  -1.957805  0.261621 -0.246409
H   1.291206 -0.490108  0.752737
N   0.439886 -1.518542 -0.088306
