20
molecule_072
C   3.579556 -2.266701 -1.050524
S   0.706856  0.057764 -0.558529
S  -0.885350  0.379603  0.282031
H  -1.269867  2.339613 -0.701201
N  -2.858877  2.527193 -2.429721
N   1.688016  3.575207  2.327369
N  -0.663123 -1.426296  0.070435
H   3.488669 -0.779173 -0.015033
H   0.267590 -1.572598  0.179042
Cl  2.016607 -0.681411  0.229664
H   1.622254  0.280663  0.495134
H  -2.493633 -0.279511  0.647765
N  -0.397283 -1.714955 -0.100472
S  -2.817376  0.859878  1.287390
H  -0.911471  1.837114  0.673549
H   0.260080  1.232181 -0.657564
H   0.458887 -1.257875 -1.263101
Cl  1.981648 -1.302691 -0.189989
S  -1.126102  1.657188 -0.073898
H  -2.647081 -3.465194  0.847654
