20
molecule_037
O  -0.258973 -1.461251  0.268675
S   0.725677  1.418191 -0.321178
C  -1.344979 -3.533891  0.289659
F  -1.262810 -1.506018  0.081546
H   0.868656  4.410155  0.105570
N  -1.822891 -0.550022  0.043668
H   1.622430 -1.910019 -0.094734
F   0.721805  2.076105  0.156667
S   0.326678  1.236205  0.307766
Cl -0.991364 -3.320141  0.607091
C   0.941954  1.797569 -0.393911
Cl  0.400000  2.202798 -0.814054
Cl  0.086271  1.002997 -0.105178
H   0.187832 -1.578432  0.082777
S  -0.427138 -2.637539  0.200198
H  -0.213016  1.189125  0.302695
Cl  1.190605 -0.636056  0.135182
H   1.274147 -1.248651 -0.205044
H  -1.137017  2.299274 -0.271766
H  -0.887867  0.749601 -0.375629
