17
molecule_408
H   1.628530  2.434445  0.772334
F  -0.331695 -1.007005 -0.556667
H   1.260816 -0.319836 -1.540020
O  -1.205626  0.491011  0.186773
H  -0.256134 -0.966315  1.184961
H  -2.502323  0.563949 -0.772922
H   3.256612 -1.412563 -0.398864
H   0.594170  1.036271  0.862073
H   0.623598 -0.685150  1.919379
C   0.092219  1.379975 -0.617104
S   2.338398  0.374181 -0.107168
H  -0.609886  0.045300  1.281729
S  -1.405413 -0.026840 -0.903826
N  -1.096242  0.670937 -0.849905
H  -1.969156 -1.676353  0.806111
H   0.701306 -0.247254 -1.202740
O  -1.119174 -0.654753 -0.064146
