20
molecule_414
H   1.978916 -3.050859  1.595878
C   2.019594 -1.231019 -1.048051
O   4.021290 -2.354596 -0.785749
H   0.941571 -1.184746  0.813589
S  -1.768347 -1.236384  0.492509
F  -0.667736 -0.953128  0.327075
H  -2.596848 -1.592535  0.216962
N  -2.005512  2.602291 -0.073776
C  -0.529214  2.240740  0.022980
N  -2.029905 -0.224433  1.837250
N  -1.837710  1.533414 -1.191256
N   1.408398  2.599023 -1.676517
Cl -0.752548 -0.074648 -1.352320
F  -1.365981  3.944892  0.208666
N   1.889418 -3.026831  0.083214
F  -2.109959  0.813517 -0.167458
S  -0.591912  0.579602  0.945873
N   1.680786  0.706237  2.040741
Cl  0.750059 -2.049532 -1.050243
H   1.565641  1.958994 -1.239368
