15
molecule_386
C  -1.113854  0.670169  0.039852
S   0.691300  0.952410  0.253571
N  -1.157201 -0.973600  0.260656
C  -1.443785 -0.873303 -0.198766
H   0.161150  0.256327 -0.009578
N   1.928001 -0.108856  0.201997
N  -0.471161 -0.421607  0.153891
H   0.124906 -0.455419  0.074059
H   2.313523  0.302609 -0.044458
H  -1.221752 -0.934618 -0.452275
H  -0.252020 -0.690773  0.111693
H  -1.468338  0.687954  0.017801
O   2.793951  1.371431 -0.439219
C  -2.386043  2.069603  0.014114
H   1.501323 -1.852326  0.016663
