15
molecule_261
O   0.700327 -0.271464 -0.502224
O  -0.732769  0.212115 -0.157143
O   0.024137 -0.926262  0.862707
F   0.355730  0.823415 -0.597293
Cl -0.432045  1.184700  0.939442
H  -0.198629  1.059242 -1.163948
O  -0.046308  0.489445 -0.451346
H  -0.003820  0.078630  1.094208
F  -0.740475 -2.499248 -0.423967
S   0.708735 -0.180659 -0.103895
O   0.841079  1.413451 -0.341574
H   1.351031 -1.302997  1.490158
C  -0.868498 -0.565182 -0.180750
S  -1.893154  1.022039 -0.532760
C   0.934660 -0.537225  0.068383
