18
molecule_146
S  -2.915935 -2.792500 -0.478899
H   0.479633 -2.269662  0.316907
H  -3.786408  0.119593  0.099069
F  -0.263394  0.432323 -0.118729
O   0.831815  1.214981 -0.353929
H  -3.163449  0.982586 -0.677723
H   0.839280  3.020104  0.116002
Cl  0.473040  1.511537 -0.269205
O   1.787373  1.069522  0.617685
H   2.065571 -0.468703  0.776225
Cl  0.251012 -0.738107  0.232184
O   1.427824 -1.800213 -0.145380
C  -2.378860  0.629371  1.280318
F  -0.982873 -0.832617 -0.034563
H   1.211419 -1.953572 -1.169565
C   0.523564  3.044844  1.158390
H   1.053254 -2.103163 -0.533814
O   2.547134  0.933676 -0.814973
