19
molecule_313
N  -1.085929  3.012986  0.889036
Cl -1.041476 -1.803368 -0.502583
C   2.485353 -0.332198  1.031247
Cl  1.098742 -0.593295 -0.728544
O   0.107479 -0.461982  1.013215
Cl -1.552004 -0.003957  0.889057
Cl  0.629979 -1.010069 -0.902844
H  -0.521722 -0.030740 -1.533920
H  -0.763383  1.435440 -0.853383
S   0.432533 -2.127925  0.115012
F   0.167351  0.323886  0.725765
H   0.132663 -1.981154 -0.496390
C   0.350450  0.139950 -0.049085
S  -0.132972  1.823001  0.408871
H   0.319969 -0.647952  0.519979
N   0.238037  0.857254 -0.510625
N  -1.893582 -0.178102 -1.836411
H  -0.368567  1.286615  0.113443
H   1.397078  0.291611  1.708159
