19
molecule_316
N   0.770871  0.144166 -0.023620
C  -0.156376  1.468549  0.226187
Cl  1.593554 -1.592550 -0.006983
H   4.013456  2.116584 -0.454903
O   0.185567 -0.368599  0.510319
Cl  2.521089  1.831634 -0.453388
H  -3.045942 -0.226529 -1.595713
C  -1.198456  0.248931 -0.189322
H   2.248015 -0.436934  0.687511
H  -1.405273  0.518695  0.483249
Cl -0.514989 -0.861567 -0.599561
H  -2.534855 -0.493095 -0.094715
Cl -3.107917 -0.903754  0.091525
S   0.710726  1.765021  0.368803
H  -0.086887 -0.410835  0.654128
O  -0.829133 -0.595409 -0.398801
F   1.222083 -0.392466 -0.536580
N   0.964787 -0.705992  0.440366
O  -1.350320 -1.105848  0.891499
