21
molecule_360
Cl  1.416996  0.352284 -0.656417
Cl -0.629672  0.514931 -1.249100
F   2.862749  0.817154 -0.855628
F  -2.023898 -0.839758  1.280295
H  -0.743677  0.227331 -0.440471
F   0.045523 -1.127316  0.893832
O   0.822962 -1.291888  0.001993
H  -1.720599 -0.029576  1.039741
H   1.155425  1.886117  0.908237
H   0.866399 -0.240286 -0.012199
N  -0.909401  1.115683 -0.683003
Cl -1.226758  0.940235  0.683180
C   0.590463 -2.122148  1.873226
C   1.688984 -0.682748 -0.027901
F  -0.431174  0.007670 -2.155953
F  -0.926087 -0.173297  0.389369
F   0.179783  0.950998  0.258747
H  -1.454909  0.367763 -0.179336
N  -0.574289  0.026885 -0.289884
N  -0.231813 -0.824957 -0.202527
F   1.242989  0.124923 -0.576202
