21
molecule_173
C  -0.315371  1.794734  0.724819
H   0.179162  0.302788 -2.325349
S  -0.059435 -0.231403 -1.047583
Cl -1.404828  0.347881  0.391880
Cl -0.810629 -1.438724  1.351952
H   0.100529  0.755096 -1.508499
S  -0.175025 -0.253818  0.008167
F  -1.008088 -0.403237 -0.873498
O   0.632270 -0.428966  0.382510
O  -1.004132 -0.190766 -0.322988
O  -1.965023  2.112542  0.701072
Cl  0.719771  1.277653 -1.328908
S   0.825589 -0.376985  1.673479
S   0.637999 -0.940298 -1.697374
H   2.268155 -3.606096 -0.076666
F  -0.005504  1.006340  1.030815
F  -1.070001  0.880661 -1.490901
H  -1.414172 -0.440118  1.935279
H   2.294546  0.052420  0.188556
S   1.118433  1.906276  0.449309
H   0.455756 -2.125980  1.833927
