19
molecule_406
F  -3.072272  0.932845  0.365792
S   2.503601 -1.708658 -0.811049
H   1.045448 -2.474645 -0.562133
O  -2.191762 -0.778319  0.035515
O   1.801460  2.759750 -0.144938
H   1.182364  3.202537  0.705150
S  -1.571674  0.381160  0.308207
C  -0.063237 -3.361750  0.316676
F  -1.557532 -0.081900 -0.238747
O   0.753226 -0.496596 -0.407831
O   0.166055 -0.261049 -0.255116
F   0.809033  0.220244 -0.149822
S   1.365108  0.750063 -0.339403
F   2.785569  0.399263 -0.088353
H   0.192048 -0.630437 -0.136031
N   0.223519  0.592726  1.080293
O  -4.792010  1.169459  0.602087
Cl  2.913959  1.963237 -0.082909
H  -2.492904 -2.577931 -0.197388
