17
molecule_339
S   0.814542  0.227176  1.280356
O   1.284587  0.161627 -1.443060
O  -1.242728  0.428621  0.547308
O   2.029135 -3.346995  0.966505
H   0.859237 -1.296543  0.667577
C   0.387467 -0.223405 -0.569533
F  -1.261311  0.202476  0.696427
O   0.259031  2.216638 -1.393154
F  -0.988537 -0.238270 -0.439704
F  -1.569922  2.232934  0.534469
S   0.229822  1.746609 -0.261356
H  -1.065381 -0.041675 -0.481320
F  -0.375061  0.683004  0.793908
H   0.350092 -1.155474  0.534187
F   0.192266 -0.558865  0.236848
S   0.988970 -0.949817  0.277883
Cl -0.892209 -0.088040 -1.947341
