18
molecule_272
H   3.000621  1.254184  0.426459
Cl -0.802428 -0.209198 -0.625666
Cl -0.343593 -0.525577 -0.427707
O  -0.873687  0.288569  0.132517
H  -2.396811  2.536218 -0.564933
O  -0.666915 -1.058329  0.832386
H   0.038953  0.790063  0.031094
C  -0.688646  0.708763 -0.574933
H   1.031218 -0.671910 -0.021574
H   1.140067 -2.042819  0.871708
Cl -2.100336 -2.040028 -0.066025
N   0.159858  0.882156  0.533931
O  -1.524028  0.365376 -0.409370
C   1.075543 -0.357737 -0.159841
H   1.610605 -0.784327 -0.388753
N  -0.328992 -1.177490  0.120280
Cl  0.640784  0.319132  1.012598
S   1.027787  1.722952 -0.722172
