18
molecule_174
H   0.763278 -0.943614 -0.870984
S   0.019489 -2.346878 -1.242341
C  -2.208815 -2.484102 -0.543537
Cl  1.014191  1.453191  0.464571
S   0.592600 -0.458583 -1.127884
H  -1.832792 -2.032093 -0.128668
F   0.853321  0.730559 -0.326774
N  -0.755118 -0.168055 -1.196781
H  -0.253527  1.761998 -0.614998
C   1.919174  0.865254  0.849019
H   2.025009  1.232316  1.626577
F   0.008013 -0.822586 -0.013760
N  -0.845958  0.673491  0.656443
C  -0.657639  1.944906  1.405333
H  -1.497250  0.556147  0.680019
Cl  1.138187  0.135801  0.123986
F  -0.579463  0.351030  0.622118
S   0.297299 -0.448782 -0.362339
