18
molecule_306
N   2.221985  0.373440 -0.298372
S   2.852186 -1.012389 -0.489567
H  -1.632495  0.306982 -0.548961
F   0.554063  0.167925  0.052753
F   2.777979  0.545484 -0.238158
N  -2.313342  0.243666  0.567424
N  -1.668596 -0.729504 -0.729045
C  -0.891159  0.129710 -0.496958
F  -3.907395  1.658754  0.790458
Cl -0.147101 -0.789901  0.034387
H   1.446198  0.645332  0.645501
C   0.836059  0.776664  0.384483
Cl  0.898518  0.076373 -0.463342
C   1.370304 -0.742306 -0.155416
O  -0.442799 -2.249327  0.367866
H  -0.508136  1.664765  0.296650
O  -0.966834 -0.682168  0.302207
H  -0.479436 -0.383501 -0.021911
