18
molecule_078
F   0.681085 -1.739367 -0.283589
H   1.753520 -0.444715 -1.501364
F  -0.842566 -4.216512 -0.096734
F  -2.114958  0.485849  1.855898
C   0.417256  0.094532  1.675261
H  -1.742546 -0.990543  0.094025
H  -3.055868  4.321196  0.410041
H   0.170035 -1.853313 -0.825278
O  -2.068301  0.928277  0.965892
O   3.726674  3.173897 -1.654336
Cl -1.523374  4.577773  0.124721
H  -4.048319 -3.141038  1.251012
Cl -1.857655 -1.216866  0.596147
H   3.696793 -1.997382  0.137763
H   0.070613 -0.391048 -1.665119
F   3.642686  0.196304  0.274387
F   1.673178 -0.382777 -0.436935
O   1.421748  2.595732 -0.921793
