16
molecule_161
F  -2.820696  0.815159  1.304854
O  -1.051554 -2.316428 -3.016860
N   0.762460 -1.062043 -1.830197
O   1.381529 -2.112093  0.499735
C  -0.288129 -1.497184  0.047563
O  -2.825290  3.274700 -0.492137
H  -0.606306 -1.191795 -0.929666
H  -0.159997 -1.816478  1.077066
C   0.610529  1.418785  2.102921
C  -1.266196 -0.713385  1.298425
S  -2.879468  2.052530 -0.638255
N   0.196417 -0.056404  0.307365
H   2.756224  0.091577  0.091687
S   4.630219  2.858700 -0.763682
H   0.341349 -0.507341  0.117565
F   1.218910  0.761701  0.823617
