15
molecule_131
H  -1.125705 -1.359119 -0.308062
H  -1.210802  0.126789 -0.535495
O   1.684542  0.843101 -0.417507
C   0.969029 -0.535242  1.191343
O   1.427958 -1.223319  0.156028
O   0.799494  3.031633 -0.444094
F  -0.122801  1.118251  0.851870
N  -1.127367  2.239666 -0.241665
C   0.059530 -5.053546  0.063480
H  -2.635928  2.878953  0.516636
Cl  1.850232 -0.834316 -0.234056
O   1.303426  1.692753 -0.066633
N   0.072948 -2.647469 -0.478020
O  -1.495160 -0.897524  0.041513
O  -0.449396  0.619390 -0.095338
