16
molecule_126
S  -1.070423 -1.788562 -0.809530
H  -0.120594 -1.516522  0.433668
H   1.464077  0.823710  1.240442
H   0.461751  1.571189 -1.020981
O   3.056804 -1.215338 -1.486185
S  -0.040872 -0.625847  0.188543
C  -2.011144 -0.274425 -1.205010
Cl  0.682202 -0.171816 -0.841764
H  -3.490613 -0.569371  1.750481
H   0.683936  0.759094  0.501851
N  -1.819931  1.442793 -1.926427
S   0.588388  1.317701 -0.044365
H   1.385244 -0.779644  0.923196
S   2.159134  0.216788 -0.226576
H  -0.294186 -0.222462  0.320821
S  -1.633772  1.032711  2.201835
