17
molecule_259
F   0.339034 -1.395572 -0.992302
F  -0.519957  0.637073  0.593531
N  -0.322225  0.569348 -4.298847
F  -0.840997 -0.840013  0.886675
C   2.633484  0.624913 -0.219301
H   0.149326  0.075638 -0.250908
H   0.362305  1.409469  0.805632
H  -1.812756 -2.275416  1.860587
S   0.306061  1.552584  0.363281
Cl  0.390515  3.071380 -0.142068
H  -0.217206 -0.748428 -0.300633
C   0.098803 -0.594515  0.029706
N   0.204956 -1.288810 -1.510638
H  -0.511120 -0.227287  1.525648
S   0.386765  0.361634 -0.200184
S   1.074534 -0.990332  1.094983
O  -1.721522  0.058334  0.754839
