16
molecule_411
C   0.824930 -0.590959  2.023664
H  -2.775736  0.100865 -1.633232
H  -0.082238  0.431686 -0.202959
F  -0.221220 -1.774938 -1.326920
S  -0.189338 -0.475477 -0.928728
Cl  0.964102  2.040902  0.725584
N  -0.413471 -1.820628  0.915943
H   1.544799 -1.628908  0.360623
F  -0.657396  0.359859 -0.573293
F   0.821663  0.902771 -0.086415
H  -0.138147  0.588901  0.081118
O   1.483775 -1.098659  0.095217
N   0.011977  0.850126  0.900216
H  -1.435728  0.006749 -0.023555
Cl  1.033315  1.924608  0.407035
S  -0.771286  0.183102 -0.734298
