15
molecule_404
S   1.008075 -2.465541 -0.171796
C   3.177459 -1.715398  0.151835
Cl -1.360645 -0.615773  0.017505
O  -2.477191  0.784399  0.480455
H  -0.532999 -0.324434  0.091554
H   1.356448 -2.673299  0.043236
H   0.223370  1.995573 -0.466081
S   1.036513  1.719496  0.555151
F  -0.391298  5.176155 -0.306182
H   1.613852 -0.695902 -0.483309
Cl -0.298034 -1.969026  0.147284
Cl -4.311524  4.347610  0.183329
Cl -0.679698 -1.062042  0.093877
H   1.655276 -1.501262  0.301112
C  -0.019603 -1.000557 -0.637970
