21
molecule_267
H  -0.094551 -0.946013 -0.285282
Cl -0.371047 -1.783258  0.089074
N   0.085296 -0.306758  0.066231
Cl  5.250795 -0.746469  0.412089
O   4.272630 -0.537988  0.092565
O  -0.266186  0.264125  0.262488
H  -2.508498  1.510554  0.155411
Cl  0.953026 -1.267877  0.202214
H  -0.775745 -1.130501  0.040308
Cl  0.564697 -1.060159  0.108320
S  -2.564785  2.236877  0.001922
Cl -1.021887  0.617954  0.249943
H   0.380550 -0.161555 -0.194679
H  -1.050479  0.661237 -1.053397
H   5.642667  1.166073  0.562109
C  -1.228754  0.271737 -0.321226
S  -2.991306 -0.875856  0.262570
Cl  3.288566  0.541586 -0.198758
H  -3.250166 -0.798625 -0.120619
C  -1.962136  0.838164 -0.423560
H  -2.352686  1.506753  0.092277
