19
molecule_168
S  -0.865347 -1.072223  0.109025
H  -2.367679  3.197363  0.241472
H  -1.253895 -1.901674  0.557737
H   1.109527 -2.760864  0.035554
H   1.926958  0.968469  0.364093
H   0.127385  0.564921  0.036297
O   1.213043 -1.480522 -0.065877
H  -1.385839 -1.035129 -0.162653
Cl -1.051695 -1.172173  0.185726
H   1.849243  2.657267 -0.180391
O  -0.456724 -0.477617 -0.722816
H  -0.938871 -1.355981 -0.258578
N  -0.000897 -0.329463  0.496242
N   2.109050  0.540788 -0.218653
C  -0.556842  2.767527 -0.310649
H   1.565638 -1.124802 -0.299091
H  -0.528206  1.680853 -0.089170
H  -1.241155  0.534939  0.193069
H   0.746306 -0.201680  0.088663
