18
molecule_219
C   2.652879  0.543469 -0.950053
O  -1.862744  2.082728  0.482466
H  -2.811546  1.248878  1.027930
Cl  2.647162  0.549613  0.456964
F  -4.032640 -0.137119  0.571926
H  -2.235780  1.111782  1.043065
N  -0.775262  0.976413 -1.999921
H   0.598898  2.057145 -0.317092
F   1.227880 -1.230074  1.301529
F   1.560340 -0.373911  0.058318
O  -0.608306  0.304436 -1.912405
O  -1.830247 -1.157114 -0.344323
S   2.338198  1.693591 -0.129996
S  -2.249108 -0.597019 -0.729502
N  -0.553670 -0.655351  0.143589
F   2.531894 -3.587521  1.268377
F   2.259416 -1.840339 -0.471933
S   1.142635 -0.989606  0.501062
