20
molecule_416
H   1.077254  0.568307  0.314610
Cl -1.760623 -1.719345  0.979702
S   2.824845 -0.471127 -2.182717
H  -1.397741  2.554243  0.525390
N  -0.693178 -0.528607 -0.857373
C   0.693934 -0.377443  0.844250
S  -0.624936  1.054321  1.411022
H  -0.086164 -0.676698  0.228147
C   0.024987 -0.866174 -0.140172
C   2.434290  1.133911 -0.912240
S  -3.663780 -0.768450  0.100012
H   2.116391  1.587976 -0.063152
H  -0.917982 -0.631384  0.277274
F  -0.179797 -0.705513  0.551409
H   1.065875 -0.899845 -0.646305
H  -1.850982  1.345061  1.401547
N  -0.157827 -1.240401 -0.867873
F  -0.079225  0.310034 -0.024277
C   0.484828  1.104898 -1.519544
H   0.689831 -0.773764  0.580291
