19
molecule_066
S   0.668786 -2.830412 -0.557925
N  -0.412520  1.507341 -0.515725
F  -0.243810 -1.042804  1.254204
N   1.514421  0.059107  0.977807
H   1.179027  0.658353 -0.883050
O   0.513971  0.845006 -0.272496
H  -0.184216 -0.072017  0.022518
O  -1.707965  2.320704  0.909940
N   0.668255 -2.596688 -0.617436
O   0.069870 -0.779091  0.526477
H  -1.148958  1.405479  0.685870
N   0.348528 -2.941935  0.117810
H  -0.355372  1.411017 -0.556235
O   1.513308 -0.741490  0.254876
N  -0.807470  0.078206 -1.834520
H   0.677385  2.686704  0.602927
H  -1.331452  0.552213 -0.614657
O  -0.613611 -0.079512  0.257739
C  -0.348176 -0.440182  0.241874
