16
molecule_060
C   0.443639 -1.878896 -2.451531
N  -0.660170  0.791181  0.809308
C   0.075016 -1.706296 -1.596215
H  -1.194496  2.231087  2.713334
F   0.279386  0.571352  0.518928
F  -0.710283  0.411764 -0.224245
H  -0.031991  2.033640  0.570318
N  -1.022446 -0.062802 -0.301767
H   1.073299  2.963993  0.500026
H   0.389584  0.403294 -0.571466
H  -0.404290 -3.495353 -0.499815
O   0.695741 -0.081934  0.421199
C   0.053246  0.665246 -0.857687
H  -0.098735 -1.301006  1.642235
H   1.641881 -0.319720 -0.747831
H  -0.529382 -1.225548  0.075209
