20
molecule_016
Cl -1.194038  1.320378  0.623343
N   0.133236  4.516321  0.004173
Cl  1.656447  0.650357 -0.447668
H   1.313238  0.443749 -0.331980
Cl -1.205686  0.870638 -0.911128
N  -0.656334 -3.018613 -0.841391
H  -0.825750  0.991942  0.308709
H   0.205080  0.740227  1.281003
H   1.038301 -1.827227 -1.473098
H   1.431851 -2.662323  0.696740
N  -1.082328 -1.409107  0.043508
H  -2.509816 -1.167199 -1.462425
N   1.637611 -4.050612  0.923570
H  -0.963182  3.099009  1.654240
S  -2.439707  1.809537  0.906986
H   2.868622  0.273778 -1.775180
C  -4.281429 -0.465490  0.351739
Cl  1.734452 -0.730093  1.684134
H   3.453111 -0.217706 -0.365522
H  -0.313678  0.832433 -0.869755
