18
molecule_045
O   0.282311  2.693728  0.003369
O  -0.689342  1.049577  0.268374
C   0.222521  0.620911  0.744027
C   1.641654  0.102735 -0.041239
C  -2.172743 -0.345220 -0.449109
Cl  0.307721 -1.671543 -0.122031
Cl -0.117147 -0.475948 -0.096279
C   1.945991  0.501785  0.403732
F  -2.841458  2.558390  0.135417
S  -0.293079  0.027788 -0.512041
H  -0.202432  0.767540  0.510132
C  -0.300027 -1.918110  0.202213
H   1.017047  0.103065 -0.575173
H  -1.091822 -0.339404  0.145603
F   1.723523 -1.995665 -0.677865
Cl  1.859358 -1.460151 -0.269083
S  -1.802157  0.813695  0.011470
H   0.510079 -1.033174  0.318483
