19
molecule_238
F  -1.635491  0.214800  0.036702
H  -1.619793  0.356710 -0.107529
H   2.363952 -0.181408  0.961821
C   1.399948  0.505988 -0.286255
F  -4.376456 -0.284871 -0.921525
N   0.167292 -0.202628  0.425267
F  -2.200068  0.436023 -0.220103
C  -2.821398 -0.459259 -0.924737
N   0.434313 -0.119445  0.480359
H   2.683712  0.049769  0.397913
H  -1.672195  0.740121 -0.807710
O   2.025205 -0.256421  0.584622
H   3.184635  0.313983  0.963660
H   0.392914  0.044843  2.793286
C  -1.812114 -0.213896 -1.747098
C   2.319481 -1.755295 -1.060170
Cl  1.005686 -0.217645  0.336324
Cl  0.307099 -0.101282 -0.560451
O  -0.146721  1.129913 -0.344377
