15
molecule_255
O   1.752077  4.805387  1.053189
S   1.522918 -3.334008 -1.192386
H  -1.066502  0.890994  1.284571
F   0.051313  0.842273 -0.686580
N  -2.354293 -1.772089 -0.745683
H  -1.139572  1.328733 -0.676452
H   2.581119  0.402936 -0.243696
S  -0.074290 -2.346497  0.021176
H  -0.763296 -0.219797 -0.312286
H  -1.841762 -1.349158  0.901490
H   1.801589  0.191490  0.357595
H   1.299382  2.760565 -0.075289
F  -0.536317  0.552340  0.102614
C  -1.854460 -1.950962  0.214063
H   0.622095 -0.802207 -0.002328
