16
molecule_294
N   0.557269  1.251114 -0.302582
F   1.701715 -2.303082 -0.992864
H  -0.915409 -1.774236  0.491175
H   1.071847  3.046473 -0.182259
C   1.560132  1.720487  0.508636
H  -1.500948  0.220601  0.623768
S   1.292867 -1.179526 -0.745684
S  -0.716135  0.690492  1.041253
H  -0.328337  1.046266  0.153751
C   3.701155 -0.788791 -0.690115
H  -0.389431 -0.661858  0.664341
N  -1.443624  1.252855 -0.133041
S  -0.272681  1.034560  0.190226
Cl -3.181491 -1.728664 -0.648864
H  -1.211019 -0.510522  0.330830
H   0.074092 -1.316169 -0.308572
