18
molecule_085
Cl  0.124511 -0.621179 -0.703648
O  -0.804093 -1.549606 -1.221372
S   0.335066  0.872782 -0.553083
N  -0.615076 -0.016864  0.891184
H  -1.014221 -0.298962 -0.858585
H   0.004653  1.049769 -0.116277
S   0.473572 -0.497688 -0.414442
H  -1.028320  0.821448  0.049799
S   0.572761 -0.417368  0.587550
N   0.182632  1.203542  0.848702
C  -0.374481 -1.410152  1.581068
F   1.116199 -0.425796 -0.251760
C   0.160737  0.536574 -0.225558
N  -0.966700 -0.366726  0.665176
H  -0.125607 -0.107882 -0.221902
H   1.342756  0.684557 -1.038552
H  -0.609231 -0.195765  0.435877
C   1.224844  0.739317  0.545822
