18
molecule_185
Cl -1.263173 -2.504578  2.173976
H  -2.132707  1.298827  0.474977
C  -1.919865 -2.248454 -1.966185
C  -0.195743 -3.356907  0.761840
C   1.234511 -1.108705  1.972714
H   1.527806  1.727137 -0.001211
H  -0.386593 -0.236877  0.267963
H  -0.759445  1.044941 -1.839293
C  -0.617311  1.061820  1.000733
C   0.659509 -1.072768 -0.664638
F   1.780061  2.015249 -0.440029
S  -0.597244  0.260384 -1.589374
Cl  1.953221  1.355944  0.441575
H  -0.883205 -0.020406 -0.444503
H   1.662293  3.186305 -1.579522
N  -1.880476  1.324909  0.168276
C   0.734974 -1.368981  1.091212
O   1.083385 -1.357841  0.171487
