16
molecule_093
C  -1.854530  0.462747 -0.072496
H  -2.600967 -1.311842  0.222936
S   0.475082 -0.058591  0.789444
H  -0.157547 -0.126985  0.464964
F  -2.063108  0.768868  0.163157
F   0.279388  0.701726 -0.684539
O  -1.265946 -0.715521  0.164015
H   2.432740 -3.113433 -0.041705
H   1.924180  1.811891  0.254342
Cl  1.259030 -1.564722  0.119011
N   1.175051  3.749002  0.556553
N   0.773838  1.011138 -0.307102
F   0.628779 -0.182431 -0.109196
Cl  0.234723 -0.651606 -0.366087
O  -2.481665 -0.506468 -0.387130
O   1.240952 -0.273773 -0.766167
