21
molecule_384
H   0.174893  1.616319  0.048624
C  -0.163280 -2.495342 -1.717106
S   0.347797  1.772399  0.074848
N   1.871894  0.827165  0.329273
Cl  0.307850 -1.958236 -0.246412
S  -0.863588  2.200246 -0.359512
C  -1.196319  0.318495  0.181556
C   0.153210 -0.548744 -0.647407
H   0.357548  0.382395  0.588906
H  -1.236879 -1.505660  0.462908
H   0.651967 -0.102301 -0.459243
N   0.745969 -0.366728 -1.069776
Cl -1.022303 -0.311742  0.026689
C   0.813628  0.772080  0.331399
H   0.560215  0.054218 -1.250438
H   0.708379 -1.154580  1.457013
N  -0.966904  0.893653  0.901209
Cl  0.346246 -0.808637  0.489114
O  -0.345702  0.936735  0.750266
Cl -0.999282  0.759298  0.500430
H  -0.245341 -1.281033 -0.392341
