19
molecule_290
C  -1.175556 -0.539811  0.259085
S  -1.917104 -0.986767 -0.032552
O   0.750327 -1.323397 -0.173043
H   0.199814 -3.563803 -0.011989
C  -0.162044 -0.437423  0.160382
S  -0.839646  1.691705 -0.016081
C  -0.549542  2.366517 -0.138535
H  -0.885041  3.106502 -0.417967
S   1.551062 -0.911248  0.198807
H   2.107020  2.285817 -0.072159
N  -1.016666 -1.853808  0.049184
H  -0.069883  2.522292  0.072812
H   1.475735 -3.101386 -0.026307
Cl  1.573536 -0.769846  0.016352
O   0.346666  0.496393 -0.008855
C   0.438329  1.966217 -0.426519
H  -1.318150 -1.411029  0.126084
S  -1.026213  1.898667  0.020715
H   0.517357 -1.435593  0.420586
