17
molecule_046
C   1.643713  2.314303 -0.409527
N  -0.769627 -0.309462  0.497375
H   0.733059 -0.221721  0.274489
C  -1.166302  0.109967 -0.551639
C   1.486990  0.210154  0.334523
H  -0.726779 -0.349246  0.312571
C  -0.428053  0.427872  0.650110
H   0.623386 -0.334243 -0.351499
N  -1.109730  1.328519 -0.976116
H   0.526543 -0.382038  0.724905
C   0.825920 -0.775429  0.298645
N  -1.311131  1.275291  0.100041
H  -0.059235 -0.248808  0.147721
N  -0.357525  0.040766  0.993399
O   0.710620 -1.001743 -0.569624
O   0.029232 -0.925618 -0.244040
H  -0.651081 -1.158566 -1.231335
