16
molecule_227
F   2.260491 -1.679685 -0.830493
Cl  1.465728 -0.757494 -0.156731
O  -1.460526 -3.192945 -0.676981
N   0.348332  0.907838  0.249732
H   0.454915 -0.109470  1.255324
H   1.457948 -1.643374 -0.213533
S  -1.351162  1.419960  0.238402
H   0.480787  1.754245 -0.059658
H  -1.210939  0.626140 -0.573006
H  -0.681764  3.390926 -0.766740
F   1.216365 -1.014053 -0.074717
N  -1.061179 -0.379914 -0.360340
H  -0.140987 -1.451575 -0.936052
H  -1.718269  3.123189  1.119260
C  -0.616507 -2.595655  0.996243
C   0.556767  1.601868  0.789290
