15
molecule_051
H   2.932940 -1.431951 -0.031232
O   0.959970 -0.605576 -0.178805
H   0.486820 -1.629586 -0.226535
H  -2.108968 -0.028537 -0.281233
O  -1.481827 -1.692787 -0.195984
N   2.239277  0.330814  0.224518
O  -1.056943  0.641189  0.724053
C   1.266701  0.563541  0.771814
C   0.796280 -3.593087 -0.724385
H   1.465785  0.663063 -0.140088
N  -1.383324  1.846198 -0.590354
H   0.019671  0.861697  0.120164
F  -1.413597  1.913059  0.155072
H  -1.727698  2.198355  0.347537
H  -0.995087 -0.036392  0.025458
