17
molecule_133
H  -1.468884  0.185728  0.235590
H   0.047792 -0.269927  0.534489
N   0.527807  0.287439  0.917495
N  -0.169100  0.926177 -1.360881
Cl  1.003383  0.468989  0.594330
Cl -0.271165  0.870686  0.337380
F  -0.255822 -0.878507 -0.220818
F  -0.217201 -0.907613  0.397480
C   0.815903  0.357609 -1.022456
N  -0.330161 -1.571581 -0.220143
F   0.799583 -1.486106  0.301048
C  -0.464063 -1.603958 -0.484412
C   0.536976 -0.780520 -0.586993
C  -0.876309  1.589927  0.904354
N   0.599096 -0.769061 -0.121734
H   0.035812  0.961684  0.334462
Cl -0.313647  2.619034 -0.539190
