16
molecule_366
Cl  2.507606 -0.318316 -0.189544
H  -0.594941  0.410125 -0.219155
C  -0.588953  1.641135 -0.174452
H   1.581543  1.263778 -0.605157
S   1.077792  0.138963  0.206627
O   0.035476 -1.810241 -0.225499
N  -2.266863  0.076929  0.496063
Cl  0.556982 -0.792385  0.593460
S  -0.304924 -1.062281 -0.517111
Cl -0.267177  0.184375 -0.292185
Cl -1.702141  0.889519  0.717675
F   1.666173  0.427518  0.547426
N  -2.152087 -0.861066  1.076736
H  -0.942840 -0.887822 -0.439521
H   1.664760  0.136674  0.248018
H  -0.270406  0.563094 -1.223383
