19
molecule_312
H   2.020224  0.856412  0.313516
C   0.189984  1.933815  1.993266
Cl -0.392669 -1.589031 -0.925933
H  -0.024562 -0.316270 -0.761711
Cl -0.746214  1.552547 -0.275757
S   0.970100  0.209294 -0.730487
H  -0.480802 -2.047704  0.472905
S   0.091012 -0.524802  0.293287
H  -0.418045 -1.259109 -0.502703
S  -0.774977 -1.375415  0.309047
H  -0.794382 -0.964736  0.488743
C   0.548477 -1.606795 -0.326674
S  -0.234749 -1.281088 -0.209132
H   0.188442  0.393964  0.065753
Cl  0.997388  3.978023 -0.331454
H  -0.018726  0.928939 -0.748562
H  -0.658148 -1.229232  0.085151
H  -0.793798  2.072839 -0.054002
H   0.331444  0.268349  0.844746
