19
molecule_152
S   0.780659  0.473194 -0.869728
F  -0.933655 -0.807572 -1.048986
C   1.655617 -2.277440  0.918721
H   2.149578  0.153278  0.806824
H  -0.862407 -1.840606  0.201926
H  -1.336812  0.314485 -0.744341
Cl  0.338630  2.569657 -0.611034
H  -0.564969 -0.019715 -0.630160
H   0.294019 -1.922300 -0.188030
H  -0.313569  0.763250 -0.494372
N  -1.160430  1.077235 -0.790196
N   0.414620 -0.016768  0.221438
H   0.142037 -0.154267 -0.008894
Cl -0.212344  0.177868 -0.927345
H  -0.400639 -1.024339  0.563281
H  -0.354284  1.234668  0.405204
S   0.138888 -0.172999  0.991440
N  -0.488281  0.270785  1.144360
H   0.713341  1.201584  1.059892
