15
molecule_249
C  -0.469634 -4.269623  0.133188
Cl -0.330633  2.836774 -0.182582
F  -1.218253  2.853872  0.329618
O   2.188441  1.076857  0.364037
H  -0.855237 -0.663569 -0.205237
H  -0.449689  1.896350 -0.346325
O  -0.805487 -1.383422 -0.227327
S   1.331887 -1.193931  1.173112
O  -0.269120 -0.585810 -0.574381
H  -2.579983 -1.211268 -0.614837
H  -0.582757 -0.002043 -0.382867
H   0.437711  0.735732 -0.140443
H   1.504038  2.339488  0.604586
H  -0.719174 -1.949725  1.199010
Cl  2.817892 -0.479680 -1.129550
