17
molecule_417
C  -1.137539  1.099377  0.017794
H   1.906385 -0.850954  0.117699
H  -0.572606 -2.006048 -0.268005
H   0.784520 -0.882509 -0.421633
C  -1.175019  2.282898  0.183783
H  -1.009373 -1.472340  0.290308
N   0.117804 -0.311256 -0.189884
O   1.660121 -1.161421 -0.065501
S   0.147306  3.529812  0.322303
S  -0.738436 -0.430771 -0.015240
F   1.685176 -0.015643 -0.379710
H   0.269594  1.481162  0.764491
Cl  0.988543  1.454559 -0.265108
O  -1.162019  0.449735 -0.198065
C   0.298768 -1.782321  0.029242
N  -1.567007 -1.899980  0.095949
C  -0.496220  0.515700 -0.018421
