17
molecule_120
H   1.542304  0.254961  0.403280
F   0.826915 -1.516168 -0.577226
H   0.733519  0.650574  0.499936
Cl  1.137691  3.119389 -0.308652
S   4.454742 -0.415931  0.193667
O  -0.621861  0.164199 -0.719079
H   0.728268 -3.275004  0.059925
N  -4.706831  2.445183 -0.564114
H  -1.890707 -1.269734 -0.165569
S   1.561248 -0.739644 -0.972305
C  -1.366658  0.553785 -0.367822
F   0.132427 -0.198842  0.827413
S  -2.506051 -2.911341  0.287908
O   1.404086 -0.015684  0.766301
S  -1.733644  1.926359  0.348614
N   1.777126 -0.495416 -0.451890
H  -1.472575  1.723314  0.739613
