20
molecule_224
C  -0.687314  0.291135  0.451428
N  -0.865581 -0.593483 -0.114527
O  -2.597126  1.023153  0.620338
C   1.233999  0.583577 -0.083267
O  -0.215289  1.330232 -0.269275
H   0.486307  0.431435  0.187844
N  -0.020808 -1.684738  0.387608
S  -2.050962 -1.727491 -0.408295
S   1.273473  2.428032  0.400415
Cl  2.156201  1.473421 -0.824257
C   0.620919 -1.293166  1.178911
F   0.186820  1.861213 -0.699359
C  -0.732402  1.552106  0.942933
H   0.723959 -3.844973  0.044442
C   0.969856  0.749996 -0.799297
Cl -1.491768  1.027207  0.438172
H  -0.303319 -1.753635 -0.852776
O  -0.037702 -1.006435 -0.154103
H   0.876402 -0.031335 -0.518675
F   0.474335 -0.816251  0.071741
