18
molecule_206
F  -0.434714  1.244567  1.359309
H   0.013606  0.787729 -0.805031
H   0.838448 -0.715574  0.603086
Cl  1.173012  0.866210 -0.142679
S   2.166670  3.087924  0.638639
H  -2.670778 -0.471467 -1.511848
H  -3.024519 -0.203887 -0.372103
H   0.092225 -0.420373  0.132278
N   1.387204  2.415339 -0.267809
H  -0.639126 -0.262754 -1.187204
Cl  0.382035 -2.290028 -1.331238
C  -1.036235  0.900766 -0.174902
H  -2.201967  1.859802  0.758009
S   1.567263  0.396352  2.867303
F   3.309225 -0.764798 -1.140358
H  -0.157524 -3.038828  0.686209
F  -2.348865 -0.514805 -0.414002
H   1.584040 -2.876175  0.302341
