17
molecule_077
O  -0.008500 -2.131914  0.069084
N  -1.101918 -1.739828 -0.103513
O   0.091988 -0.740391  0.464400
F  -2.012381  0.711597  0.057706
S   3.127846 -0.164922 -0.038908
S  -0.334166  2.607078 -0.053607
C  -0.296450  0.078402 -0.114144
H   0.424930 -0.261832 -0.485613
N  -0.953543  1.542556 -0.499059
S  -2.481797 -2.799956  0.486002
N   1.526312 -1.170719  0.290868
C  -0.274573  0.108307 -0.045842
Cl  2.534027  2.149484 -0.359833
S  -1.696028 -0.492908  0.597367
C   0.310283  0.761596  0.042128
O   0.604155  0.573403 -0.173168
H   0.539813  0.970046 -0.133869
