16
molecule_370
C   0.373269 -0.409476 -0.063326
F  -1.085341  1.671891  1.217169
Cl  1.512726 -0.785557  0.298530
H  -0.788062 -0.652918  1.556858
H  -0.087567 -2.730244 -0.376260
S  -0.521527 -1.052595 -0.310939
C  -0.069711  1.006688  0.490405
H   1.281904  0.530464 -1.218546
N   2.294928 -1.397513  0.824840
O  -1.189743 -0.861249 -1.289524
H  -1.879077 -0.981667  1.729501
H   2.591820  1.927340 -0.428877
F  -3.350209  0.553448 -0.940964
H   0.357955  2.490018 -0.485283
N   0.734687  1.302609 -0.925410
O  -0.176050 -0.611238 -0.078173
