15
molecule_194
H  -0.393932 -1.499465  0.329998
H   2.303436  0.237113 -0.598899
H   2.681922  1.144645 -1.060962
H  -0.169540 -0.100396 -0.065438
F  -0.924092  0.063883 -0.016326
Cl -1.604715  0.117939  0.422341
C   0.858199 -0.473272  0.023729
H   1.645581  0.133190  0.491470
H  -1.036014  0.379452 -0.452425
H  -1.474148 -0.100744  1.293816
F  -0.972495  0.801794 -1.238554
H  -1.271853 -0.230134 -0.281488
N  -2.014991  0.595983  0.391055
N   2.728907 -2.376165 -0.524970
Cl -0.356263  1.306176  1.286652
