15
molecule_333
H  -0.107722  0.388460  2.455719
N   0.374893  1.602647 -0.654606
N  -1.072309 -0.213668  0.411003
H  -0.650207  1.042920 -1.092617
H   0.889844 -1.093223  1.406641
F   1.095854  0.782495 -0.671999
C   2.027468 -0.998438  1.241938
H  -1.300140 -0.097769  0.449156
Cl -1.982126 -0.042745 -1.123572
N  -0.997862  0.601285  0.150313
H  -0.667952 -0.770982 -1.482596
C  -1.607415  0.003894  0.319868
C   2.644681 -1.153356 -0.497762
F   1.019783  0.903398  0.189972
H   0.333210 -0.954918 -1.101458
