19
molecule_104
C  -0.268851 -1.289950  0.233171
C   1.306451 -1.709990 -0.126394
S  -1.186349  2.825832  0.211620
N  -0.559301 -1.247828  0.967753
H  -1.603340 -0.801427 -0.471596
O   0.073602  1.837325 -0.825196
N   0.327870  1.748255  0.650392
N   1.740643  1.547671  0.961039
H   0.002872 -0.695232 -0.320356
H  -0.052971 -1.924278  0.294208
F  -1.697714  0.696562 -1.261627
O  -0.873276  0.586049  1.051437
F   0.355070 -1.387840 -0.091094
C   1.041317 -0.573369  0.899265
F   0.719906  0.724961 -1.582771
H   0.977940 -1.691764  0.024903
C   0.395702  0.251560 -0.280718
C  -0.959191  0.351189  0.103572
H   0.259620  0.752273 -0.437608
