15
molecule_026
C   1.058276  0.333112 -0.387508
H   2.369386 -0.976443  0.128786
H   1.464281  0.253190  0.100049
C   1.102137 -1.241326  0.439811
H   1.670933  0.021031 -0.489715
S  -3.737570  0.494002  0.130718
N  -3.245063 -1.227098  0.201528
O   2.288326  0.083935  0.167779
H   0.696419 -1.932707 -0.183565
N  -1.235540  0.137239  0.134713
H  -0.509143  2.090000 -0.290049
O   1.175644  0.263909  0.274091
C  -1.345056  0.068974 -0.661965
H  -1.152760  2.040774 -0.006957
N  -0.600271 -0.408593  0.442284
