16
molecule_167
F  -1.236808  1.181673 -0.251491
H  -3.593937 -0.177345 -2.088710
N   0.537401 -1.298287  1.037320
S  -0.412922 -0.688366  0.067211
H   0.438252  0.793073 -0.479594
O   0.119476  0.061703  1.857598
C   0.812050 -3.266013 -0.875867
F   0.290791 -1.297934 -0.247305
H   1.682517 -0.074752 -2.333566
H  -1.059866 -0.353863  0.415047
C   0.368702  0.794994 -0.809474
H   0.937065  1.804667  0.426881
F  -0.292981  2.060218  2.334635
H   1.054300  0.405497 -0.543934
S  -0.216597 -0.036229  0.942416
C   0.572558  0.090964  0.548835
