16
molecule_025
N   3.919017  1.076086 -0.287693
Cl -0.347650 -1.672451  0.012111
O  -0.019388 -1.446220 -1.386233
C   1.939606 -1.343485 -1.419302
O   2.630426  1.152533 -0.299483
S   0.250809  1.062951  0.426925
F   0.389651 -0.098578  0.211115
O  -0.560468 -3.114724  0.125477
O  -0.444715  1.030628  0.425522
F   1.268127  1.345994  0.687727
H  -1.711513 -2.733509 -0.140615
C   0.932721  2.120964  1.537598
F  -3.429819  0.412047  1.227674
O  -0.727733  3.115917 -0.652499
H  -0.588333  0.438100  0.524164
Cl -3.500738 -1.346254 -0.992489
