15
molecule_064
C   1.005986  1.259210 -0.025159
H  -1.987438  1.509578  0.179912
S  -1.268762 -1.837152  0.120166
H   0.714429 -0.668586  0.286513
H  -0.183707  0.829456  0.075085
O   2.019065 -0.690545  0.309841
H  -2.502111 -0.726039  0.280719
O   0.142807 -0.411749  0.210397
Cl -1.632545  0.077039 -0.239592
C   1.124680  0.131192 -0.575115
H   1.665260  0.725228  0.295033
N  -0.329978 -0.070279 -0.287623
O   0.266497  0.004461  0.065345
H   2.271970 -0.626113 -0.481606
Cl -1.306154  0.494300 -0.213915
