16
molecule_119
N   4.438095  1.078668  1.336044
H  -1.968623  0.087553 -0.512923
F   1.378334  0.818244 -0.195345
C  -2.123315  0.862982 -0.830377
H  -0.484046 -0.507874 -0.685578
O  -1.047478 -0.253266 -0.275005
N  -1.104103 -0.004823  0.384383
N  -1.153192 -1.019420 -0.368085
F   0.467878 -0.103268 -0.236027
N  -1.736971 -0.278514 -0.092635
S   1.138771 -0.671107  0.574501
C  -1.528521 -1.584038  0.710727
C   1.709165  0.648227 -0.187268
Cl  2.393500  0.929558 -0.404201
H   0.117844 -0.468659 -0.181237
S  -0.497338  0.465737  0.963026
