19
molecule_186
H  -1.647241  0.377269  0.061050
S  -0.120923 -2.584600 -0.341862
O  -1.939395  1.835461 -0.389519
H   1.289651 -0.082896 -0.309479
O  -1.291939  0.972035  0.025486
H  -0.897734 -0.739140  0.061842
H   0.513555  0.707628  0.209370
C   0.350324  0.125970  0.266949
N   1.241934 -3.224857  0.041474
F   0.078727  1.693679 -0.596884
C   1.114066 -0.345916  0.166174
S   1.206284 -3.230537  0.320992
O   0.009902  2.720383 -0.112376
Cl -1.114224 -2.097618 -0.255713
H  -0.467681 -0.270272 -0.334488
N  -1.608161  1.075241  0.882837
H   0.249943  0.419212 -0.045455
C   2.342736  0.864013  0.169184
N   0.690175  1.784944  0.180421
