17
molecule_106
Cl -0.102452 -1.353509 -0.598583
N   0.541025  0.977987 -0.100687
Cl -0.508488  2.995473 -0.052143
N  -0.224624  1.720549 -0.622770
Cl  0.893380 -1.894367  0.002757
C  -0.469722 -0.713218  0.026341
O  -2.443772 -0.553101  0.486974
N   0.161774  0.032469 -0.403791
C   1.578259  1.343744  0.586327
S  -0.023128  0.390728  0.370540
C   0.176234  0.826117  0.301905
F   0.481321 -3.054695 -0.258166
S  -0.452018 -0.005416  0.137687
O  -0.174412  0.486575  0.966957
H  -0.978694  0.486291  0.060049
S   1.158981 -2.236228 -0.503029
H   0.386336  0.550598 -0.400367
