16
molecule_193
H  -2.088380  0.733522  0.987609
F  -1.810325 -2.201778 -1.299901
H  -2.558228  1.581879 -1.776753
C  -1.558960  0.535947  1.406287
S   0.252873 -0.251420 -0.685830
S   0.046637  0.333693  0.910282
S   0.150349  0.677528  1.534403
O   0.042200 -1.656673 -0.833268
O   1.013793 -0.280268 -0.928194
Cl  0.317760  1.002401  1.926398
H   0.985014 -0.575127 -0.961311
C   0.298866  0.241980 -1.487493
N   1.019678 -0.990421  1.001626
S   1.492216  0.612460  1.140528
O   2.099743  0.195592 -0.413588
N   0.296765  0.040686 -0.520795
