16
molecule_346
C  -2.273674 -0.218633 -0.201239
O   0.360662 -0.402527  0.198815
O  -0.196211  1.422307  0.843357
H  -0.169038 -0.487770 -0.476807
H  -0.128163 -0.905323 -0.683646
F  -1.196283 -0.166267 -0.108904
O   0.760473  1.357556 -0.101235
H  -0.815618  0.483840 -0.826530
N   2.101726  0.277204  0.298273
N   0.827196 -0.653505 -0.099016
H  -0.256171  1.275869 -1.018900
O   1.020061  0.168524 -0.483066
F   0.419763 -0.565348  0.839706
O  -0.495842 -0.852645  0.686210
Cl  0.793210  0.443778 -0.064816
H  -0.752092 -1.177060  1.197797
