17
molecule_058
C  -4.424765  1.346697  1.325241
H  -1.208535  0.563564 -0.373860
O   4.663861 -1.338890 -0.067097
Cl  2.375465  0.765704  0.726552
F   0.125586 -0.706091  0.096420
O  -0.482466 -0.464945 -0.185847
F  -0.080135  1.870122 -0.246181
O   1.877443 -1.085763  0.437613
H  -0.221051 -0.792916 -0.878118
F  -3.402271  0.541211  1.079132
H  -1.016533 -0.286760  0.234036
H  -1.893771 -1.814357 -0.731738
S  -0.027957 -1.143647 -0.194402
F   0.309221  2.451382 -1.343868
H  -0.028310 -0.298326  0.045899
H   1.275378 -1.069715 -1.127906
F   2.158840  1.462732  1.204124
