20
molecule_300
C   1.782952 -0.467550 -0.939981
N  -0.772940 -1.192969  0.130327
S   1.951920 -0.788173 -0.500314
S   1.175763  1.277605 -0.886841
H   0.856253  0.235888  0.621786
O   0.612525  0.091899 -1.132573
Cl  0.000306 -0.418918 -0.925867
H  -1.169258  1.425812  0.769547
O   0.771810  0.432467  0.439237
C  -1.203739 -0.087245  0.946329
O   1.630974 -1.301346 -0.012352
C   1.247019  0.518521 -0.287895
H  -0.106282 -0.099228  0.858043
S  -0.326972 -0.712953 -0.129282
O  -3.302786  0.887892  0.205608
O  -2.432610 -0.148681  0.710426
H  -1.013009 -0.962383 -0.103015
N  -1.678844  1.387411  0.226794
F  -1.776995 -0.571571  0.248870
H   3.753913  0.493522 -0.238849
