16
molecule_129
S  -2.003601 -1.008972  0.859096
N  -0.525321 -2.566963 -0.595809
Cl -0.134327 -0.846135 -0.054969
H  -1.199961  2.571722 -0.879934
F  -0.407485  1.126867 -0.063529
F   0.927932  1.546521 -0.433872
H   0.236744 -0.707302  0.642881
C   0.613557 -2.249116 -0.730061
Cl  0.382659  0.818812 -0.130501
H   1.327435 -0.840544  0.405853
O   0.295622  0.617789  0.615182
F  -0.109743  0.445498  0.179513
Cl -0.102405 -0.353530 -0.360946
H  -1.928415  0.534313 -0.478758
H   0.995190  0.522558  0.357464
H   1.632120  0.388481  0.668390
