19
molecule_299
F   0.528430 -0.841663  0.056582
H   0.483313  0.172991 -0.652799
S  -1.132677  1.300721 -0.172673
S  -0.842337 -2.870211  0.277338
C   2.255052 -1.294831  0.425358
F   1.962051 -1.655183 -0.408638
S  -0.517490  0.607599  1.588359
Cl  1.075536 -0.924828 -0.543074
N   0.434054  2.575551  0.302390
C  -3.001469 -0.504586 -1.487736
H  -0.988211  0.008970  0.600952
H  -0.748557  2.001770  1.581406
O  -1.751124  0.891756 -1.025826
N  -0.420163 -2.042837 -1.030549
Cl -0.090391 -0.307382 -0.177416
Cl  0.330100  1.470456 -0.889749
Cl  0.313728 -0.011175  1.458858
H   2.216577 -1.026598  0.638703
C  -0.106421  2.449480 -0.541488
