17
molecule_187
H   4.497521 -0.202263  0.646956
Cl  1.638676  5.282071  0.403276
H   2.353843 -0.108428  1.423733
H  -3.922671 -4.899552  0.769747
O  -0.851486 -1.496465 -1.835021
H   2.405801  0.134875 -0.908202
N   1.206592  0.411766 -0.280799
N  -2.837882  0.850678  1.278918
H   0.172862  1.270690  2.543780
C  -1.617438  1.508522  0.259970
S  -1.130380 -1.521606 -0.888824
H  -0.604779 -1.069016 -0.886189
H  -0.464776  1.901738 -1.340309
O   2.113789 -3.467819 -2.859511
S  -2.846503  0.548560 -0.295812
Cl -0.081821  1.618784 -0.387448
H  -0.031347 -0.762535  2.355735
