20
molecule_277
C   0.117306 -1.091959 -1.358619
H   0.311733 -2.517427 -1.723682
O  -0.578562 -1.106667  0.559536
H   0.921253  2.011242 -0.276326
H   1.241512 -0.308025 -2.274066
S  -3.458973 -0.444315  1.457553
O  -1.884505 -1.655225  1.148279
F   1.398952  1.919230  1.936595
S  -1.151692 -0.424303  0.375627
H   2.171539  1.076379 -0.981072
H   1.927240 -1.266200 -0.621668
C  -0.119631  0.740216  1.191221
H  -0.377913  4.488234  1.174481
S  -0.038028  1.525015  1.647399
S  -0.192895 -0.581518 -1.608815
C   1.401537 -1.085571 -1.166048
S  -3.181486  0.603876 -1.161467
Cl  3.244262 -1.601158  1.275836
C  -0.454002  0.260142 -1.274279
F  -1.297648 -0.541968  1.679515
