19
molecule_196
H   0.867188  1.442857  0.811520
H  -3.625548 -0.310043  0.770490
H   0.001672 -0.008273 -1.533805
O   1.062238 -0.217897  0.306892
H   2.159400  0.645220  0.094144
Cl -0.061679  1.592823 -1.210085
Cl  1.936997  0.165899  0.518927
H  -0.086194 -0.386640  0.516716
S  -2.024798  0.424646  0.725142
N   0.972475 -1.404044  1.061737
H   1.129404 -1.192971  0.195367
H  -1.441286  0.017277  0.230760
S   0.453405 -0.669214 -0.583876
Cl -0.040952 -0.930256  0.238744
Cl  2.530862  0.381824 -0.544372
O  -1.929914  0.407084  0.268989
H   3.649636  1.602266 -0.543651
C  -4.084876 -1.684588 -0.108367
O  -1.468028  0.124029 -1.215271
