15
molecule_090
C   2.256369  0.330123 -0.269159
H  -1.500712  0.529046  0.091307
H   3.220298 -0.296253  2.745529
C   1.019924 -1.114414 -3.327842
S  -1.366051 -3.531792 -1.906887
S   0.324465  0.272433 -0.520489
F   2.128218  1.250046  0.264655
F  -0.342950 -0.157337  1.804634
C  -1.253970  0.111660 -0.673520
F  -1.551192 -0.954190  0.340916
O   0.702303 -0.485820 -0.244556
H   0.017356  2.109366  0.335826
Cl -3.408798 -0.405223  0.321920
N   0.067198  1.075249  0.115155
F  -0.312455  1.267105  0.922511
