15
molecule_137
S  -2.161975 -0.337925  1.131438
H   0.426613  0.878903  1.026988
C   0.086739  1.065616  0.784151
H   1.936693 -0.891740 -0.131650
H   3.858680 -0.988495  2.685538
Cl  0.347503  3.537256 -1.180175
H  -0.126007 -3.376244 -0.105380
O  -0.728808 -2.675775 -0.206853
H  -3.616773  0.717385 -1.226929
S  -1.226226 -1.397973 -0.177849
Cl -0.229689 -1.325345 -0.897877
Cl  1.548482  1.321692 -0.994802
S   2.008574  0.838609  0.211825
C  -2.230188  1.000646 -1.185918
C   0.106383  1.633391  0.267490
