18
molecule_156
H   1.296173  0.550575  0.358056
F  -0.664970 -0.627962 -1.080103
H   0.815203  0.050922  3.314163
H   0.539060 -0.252253 -0.368660
H  -0.498521 -0.741618 -1.180063
H   0.062150  0.877084  0.130790
Cl -1.612167  1.633824 -1.094155
F   0.316859 -1.387687  0.288560
H  -0.710357  1.874931  0.364208
C   0.643814 -0.564619 -0.221816
N  -1.373132  0.949602 -1.263495
H  -0.608756 -0.551470  0.925790
F  -1.118985 -0.528566  0.479957
S   0.813027 -2.263030 -0.456287
F  -1.095508 -0.352459 -0.453741
H   0.937946  0.742362 -1.260254
S   1.458501  0.011703  0.822909
S   0.799663  0.578661  0.694139
