20
molecule_247
Cl -0.939193 -0.821756 -2.158546
H   0.063079 -0.331507  0.151057
Cl -0.794177  0.819501 -0.382141
H   0.793534  3.152553 -0.705388
H   2.304471  2.682808 -2.217713
Cl -1.514199 -0.737202  0.560843
N   0.134213 -2.636106  0.023716
C  -1.485792  0.057423  0.550393
O  -0.154502 -0.395467 -0.820082
H   0.535329 -0.457784  1.369290
C   0.619937 -0.311085  0.470824
N  -0.526068 -1.037506  1.084720
N   0.165411  0.423497  0.539286
H   0.725777  1.875454  1.088379
S  -0.598654 -0.368854 -0.871903
H  -0.289130 -0.370934 -0.945144
H  -0.101620 -2.066509  0.382572
N   0.155419 -0.682695  1.650305
O   1.151405  1.129467 -1.385270
H  -0.245241  0.076701  1.614801
