21
molecule_324
C   0.689869  1.079239  0.555333
H  -0.205274 -1.895557  0.404271
O   1.991507  0.238469 -0.421523
H  -1.004076 -0.074270 -0.456364
S   2.778527 -0.867214 -0.190068
H  -0.179324 -1.160414 -0.399979
Cl  1.331661  0.345030  0.038021
F  -0.220253  0.386887  0.186495
H  -0.232715  0.360536  0.082382
N  -0.632479 -1.285914 -0.189012
Cl -0.199553 -1.082870  0.186559
S  -1.590601  1.541895  0.427594
N  -2.288365  0.074598  0.042207
S  -0.388545  0.387897  0.158684
H   0.841238 -0.767747 -0.021855
H  -1.014976  0.384357 -0.050042
H   1.345219 -1.183660 -0.658444
S  -0.202795  1.279108  0.113990
O   0.286149  1.419003  0.605781
O  -0.090891  0.184759  0.025849
Cl -1.014324  0.635871 -0.439877
