19
molecule_305
H  -2.176174 -1.285150  0.052163
O  -0.449643  1.214071  0.049723
H   0.345968  0.192599 -0.058229
O   0.781924 -0.767518  0.294372
O   1.318147 -1.483484 -0.393738
C   0.281406 -0.076415  0.885715
F   1.009308 -2.025705 -0.269371
Cl -0.004750 -0.513673 -0.438836
H  -0.644954  0.590802 -0.209245
H   0.981763 -2.854945 -0.071200
H  -0.848955  0.687511  0.094914
S  -0.178422  0.992944 -0.145152
O   1.378543  3.000787  0.379998
C  -0.822983 -0.324924  0.257246
S  -0.736550  0.495416 -0.287207
O  -0.430422  2.524476  0.027897
C  -0.880223 -0.276234 -0.029057
F   0.044997  0.189187 -0.180062
F   1.031019 -0.279744  0.040069
