17
molecule_068
H   2.131395  1.231686  1.007938
Cl -0.048343 -1.119018  0.265809
H  -0.850767 -0.281830 -0.075967
O   2.856792  0.877871 -0.022098
Cl -1.512444  0.541564 -0.305056
H   2.376996 -1.338260  1.050540
H  -0.561530 -0.733295 -0.146027
H  -0.801551 -1.157389 -0.899195
N  -1.803429  1.632436 -1.095048
C  -1.856331  0.181085 -0.525345
Cl  3.370722  1.733939  0.575546
Cl -0.706692 -0.523866  1.206239
O  -0.277436 -0.189077 -0.645432
H   1.968131  0.733848 -0.544649
S  -2.514024 -1.452367  0.808423
S  -0.547179 -0.747335  0.440643
N  -1.224310  0.610008 -1.096321
