17
molecule_215
Cl  1.175496  0.798729  0.613024
H  -0.259525 -1.971608 -0.375769
H  -0.868640 -0.600565 -1.282482
S   1.228560 -0.796154 -0.028501
H   1.580944  1.497993 -0.092419
H  -0.290565  1.658581 -0.113129
H  -2.568028  0.476228  0.576317
Cl  0.028871 -1.153109  0.006967
N   0.359305 -1.820901  0.618753
H  -2.718146  0.794110 -0.007158
H   0.003598 -0.486424 -0.355985
C   0.584708  1.970241 -0.834626
O  -0.366614 -2.388781 -0.053987
C   0.858214  1.676939  0.511222
H   2.143091 -1.751919  0.276040
N   0.211754  1.019654  0.664417
Cl -1.103022  1.076984 -0.122684
