19
molecule_355
H   0.489287 -0.166285 -1.653677
H   0.271244 -1.349567  0.455446
F  -0.431656  1.156683 -0.068546
F   0.135294 -0.429127  1.729575
H   1.420666 -0.737195 -0.299088
N  -0.444601 -1.261436 -0.605575
S  -1.445697 -2.180572  0.283769
H   1.628960  1.056493 -0.015335
Cl  0.304243  1.463001 -0.053301
C   0.602266 -1.255049 -0.035782
Cl  0.950871 -1.994733 -1.484465
Cl -1.203573  3.341423 -2.022783
C  -0.456152  0.990285 -0.206028
F   0.918446  1.065837 -0.801036
N   0.249934  0.951995  2.125119
H  -0.448580 -0.261385  0.456135
H  -1.021616  0.957855  0.849910
H  -1.006221  0.290671  0.075946
C  -0.513115 -1.638895  1.269718
