20
molecule_151
H   0.121740  4.906560 -0.829265
H  -1.618687  1.468268  2.549597
F  -3.012197 -1.360666 -0.468936
S  -2.582610 -0.837464 -0.231419
H   1.512761  2.681930 -0.609504
C  -1.239120  0.790364  0.020615
Cl -4.549811 -1.663242 -1.075291
S   0.378844 -2.241620 -0.477220
Cl -0.627273 -1.106799 -1.222128
S   2.243341 -2.998305 -0.031216
S   2.369799  3.687001  1.137989
F   3.566121 -2.205117  0.881500
F  -2.509980  0.064802  0.783233
H   3.306412 -0.584842  0.480680
Cl -0.596926  1.963482  0.677707
C   2.376826 -3.061736 -1.238990
H  -1.402067 -0.722882 -0.785502
O   2.028288  1.475142  1.080438
H  -1.547731 -1.434775 -0.114561
F   1.782271  1.179899 -0.527727
