17
molecule_017
F   0.046914 -0.896907  0.353162
H  -1.504072 -1.105153 -0.396676
Cl  0.031828  0.008048 -1.117794
H  -1.003304  1.461611  0.042682
F   0.895274  1.249399  1.197958
H  -0.072314  1.585789 -0.205742
H   0.568267 -1.481446 -1.314270
N   0.520413  0.836393 -1.060165
H  -1.585201  0.682557 -0.452913
Cl  0.458812 -0.309594  0.229721
H  -0.674849 -1.428756  1.429069
Cl -0.825128  0.982654 -0.035173
S   0.018883  0.731309  0.066229
C   0.684504 -0.209910  0.775637
H  -1.015704 -0.982701 -0.081091
N   2.240332 -1.224214  0.845647
H   1.215346  0.100922 -0.276282
