19
molecule_375
H  -2.379309  0.012107  0.249094
C   0.419028 -0.509291 -0.904284
S  -2.648877  0.534407 -0.409188
O   2.272794 -0.326406  0.038260
N  -0.365345  1.406900  0.042081
C  -0.283728  0.968955  0.693836
O  -0.050286 -1.290523 -0.035821
N   1.310370 -0.582867  0.965024
N  -0.869340 -0.345694  0.263577
H   2.237064 -1.200704 -0.785117
N  -0.951109  1.336327 -0.068856
H  -0.240319  0.093481 -0.099154
H  -0.623877 -0.004314 -0.393691
H   2.669564  0.256446  1.298389
S   0.825428 -0.995868  0.127454
O   1.997530 -1.280434  0.133804
O  -1.199129  0.603264  0.052605
H   0.979932  1.439398 -0.219931
F  -3.100390 -0.115184 -0.948084
