16
molecule_308
N   0.393620 -0.690397 -0.836152
H   1.560783  0.553822  1.203779
Cl  3.014508 -0.161624  0.496424
C   1.325405 -0.303549  1.097229
F  -1.886837  1.161612 -0.427300
H   3.027669 -0.549604  1.463442
H   1.119486  1.726386 -1.535899
H   5.273775 -1.014881  0.222735
N   2.832219  0.083501 -1.287694
H  -0.868626 -0.527795 -2.012497
S  -1.340845 -2.162238 -0.346305
O  -1.078223  0.230142 -0.860129
H  -3.762986 -0.372619 -0.072451
H  -1.861774  0.085586  2.597251
S  -4.195813  0.397900  0.233982
F  -3.552361  1.543757  0.063585
