21
molecule_318
S  -1.160450 -2.254605  0.017656
N   1.565385  0.964827 -0.804695
Cl  0.897686 -1.053536  0.971352
N  -0.625436 -0.408602 -0.526366
N  -0.328492  0.694225  0.350794
S   1.312902  0.117757  0.176862
N   1.468841 -1.901836 -0.620567
C   0.377152  0.324779  0.990297
N   2.605906 -1.278111 -0.174816
Cl -0.070093  1.511348  0.794415
C  -1.693297 -0.411260 -0.123114
C   0.383761 -0.181231 -0.478417
N  -1.051210  1.420487 -0.391550
H   0.526338  0.919965  0.045207
N   0.745295  1.669285 -0.203355
C   0.319621  0.477286 -0.532478
F  -2.987018  1.008613  0.103730
H   0.513519 -0.863356 -0.315210
S  -1.420744 -1.752798  0.469626
S  -1.646315  1.245772  0.134769
N   0.266649 -0.249007  0.115859
