18
molecule_381
S  -1.551766 -0.503454  1.053422
H   2.817246 -0.774983 -1.863935
H  -3.858600  0.938139 -0.164547
H  -0.342495  0.137383  0.346747
H  -2.662575  0.684596 -1.429162
Cl  1.994314  1.453171  0.066149
Cl -0.311962  2.213926  0.574720
C   1.481253 -0.328787 -0.983653
H   0.206462 -1.250475  0.377295
O   4.539472  1.784971  0.675181
C  -0.036851 -1.678424 -0.683361
C  -1.523124 -0.465993  0.116727
C  -0.649232  1.132087  0.738661
H  -2.804622 -2.649478 -0.343356
N  -1.658645 -0.542912  0.908006
H   3.435693 -0.472072 -1.610304
O  -1.821146  0.099904  1.287905
F   2.746579  0.222403  0.933504
