20
molecule_082
S  -2.000310 -0.298311 -1.035442
H   1.019096  0.252109  1.620576
H  -0.399354  1.068934  1.219925
N   1.835728  0.449760 -1.260788
C  -0.091237  0.835496 -0.804510
Cl  1.292875 -2.327215 -2.495920
F   1.588193 -4.277878 -0.741052
H   0.693364  0.467412  0.311503
H  -0.264311  0.958338 -0.745232
C  -2.178243 -1.078304  0.375006
H   0.045968  0.957845  3.102949
S  -0.831292 -1.643575 -0.254623
C  -0.247476  2.201629 -0.572828
C  -0.641000  3.606857  0.341716
Cl  0.061507 -1.406079  1.189004
O  -0.781413  0.425858 -2.039307
O  -1.032255 -2.437545  1.098287
O   2.005834  0.213474 -0.063511
H   0.570429  1.020077 -0.371000
H  -0.646103  1.011118  1.125247
