18
molecule_099
N  -0.467739  0.006401 -0.627442
H  -0.161297 -1.662167 -1.191865
S  -0.066299 -0.835234  1.709202
C   0.647731 -0.476977  0.658718
F  -0.816966  0.746316  2.072984
C   1.083673  1.528214 -0.704650
H  -1.153487 -0.834495 -1.545250
H   0.512881  0.342894  0.350599
N   1.098466  0.126722  0.583935
F   0.308835  0.272699  1.079275
H  -0.084474  0.479583  0.082669
H  -3.500875 -0.285791 -0.583154
Cl -0.022362  1.610648  2.002458
N  -0.349059 -0.155972 -0.016594
N   1.141029  0.612864 -0.973660
S  -1.140113 -0.359495 -0.055505
S   1.241971 -1.529604 -0.835805
H   1.728084  0.413394 -2.005914
