15
molecule_035
N   1.218469  1.030833 -0.191477
C   0.528171  1.371054 -0.057599
H   1.276011 -0.976403 -0.134418
O   0.409224 -0.115145  0.810155
H  -2.511218  0.687122  0.591242
H   0.864224  0.051043 -0.196044
S  -0.561915  0.058859 -0.061488
F  -0.284613  0.693036 -0.895238
S   0.786634 -1.414055 -0.061201
O  -0.432684 -1.437054  1.188530
Cl  0.720472 -0.431560 -1.295337
H   0.816699  1.426473  0.299325
O  -1.467874 -1.350049 -0.282538
Cl  0.573878  0.450711  0.082372
H  -1.935477 -0.044864  0.203715
