15
molecule_383
F   0.813082  0.310240 -0.002388
H   1.306180 -0.476294  0.680752
O   0.158477 -0.543152 -0.255947
H  -3.015957  1.146635 -0.115896
H  -2.100791 -2.280898  0.085091
Cl  1.556097 -1.106424  1.300526
H   1.124372  1.890734 -0.522090
H   0.792926  0.068905  0.634181
N   1.214278  1.497513 -0.749100
H  -2.434149  1.504776 -0.853740
C  -0.307575 -0.325979  0.293283
S   2.433326  0.903836  0.181466
H  -2.563865 -2.490831  0.080143
F  -0.515413  1.858244 -0.437686
C   1.539013 -1.957305 -0.318595
