16
molecule_251
Cl -1.027606  1.932990 -0.165424
H   3.071964  1.044828  0.908624
N  -0.890311  2.542472  0.058542
F   3.502387 -2.365044 -0.380019
H  -3.039796 -0.121313  0.247300
F  -0.428271 -0.544528  0.424741
Cl  1.413376 -0.097645 -0.457526
Cl -0.525979 -2.725717 -0.012838
H  -0.952605 -0.671330 -0.111755
Cl -0.518822  1.927050  0.215853
Cl -0.538950  0.148278 -0.327666
N   1.219171 -1.516960  0.128068
C   0.202635  0.425709  0.319312
C   0.083921 -0.105000 -0.139554
S  -2.188645 -0.571598 -0.943135
H   0.617531  0.697807  0.235478
