15
molecule_189
O  -1.531145 -0.587783 -1.577640
F   0.318186  1.808690 -0.768270
F   1.258412  0.331563  0.655044
Cl -1.477479 -1.334095  0.371072
O   3.259947  0.360498  1.475387
N   1.354957 -1.849683  0.038210
Cl -0.566238  0.405087  0.614737
H   1.420499 -0.319744  0.894385
Cl  1.117183  0.124696 -1.178917
S  -1.516809  0.157168 -1.839902
N  -0.763474  0.042705  0.367786
C  -0.737039  0.025413 -2.238549
C  -0.606858  0.518845  0.740751
S   1.930247  0.127768  0.348445
H  -3.460388  0.188871  2.097461
