18
molecule_216
H   0.155379  0.134617 -0.091757
H  -2.015332 -0.177867  0.075782
F  -1.314985 -0.336118  0.095625
H   0.179144  0.335049  0.493582
H  -0.507731  2.166089  0.282194
F  -0.575716  0.314134 -0.171800
H  -0.548744  0.436271  0.561085
N   0.735629 -0.451649 -0.491786
N   0.782760  1.856982 -0.709095
O   2.351818 -0.377848  0.700520
C  -2.216357 -0.860076  0.763879
N   1.580138 -2.198153 -0.923075
H   3.287842  1.180306  0.014321
O  -0.202899  1.451700  0.039773
O  -1.562330 -0.039190 -0.244434
H  -1.150697 -1.904354 -0.140514
H   1.079269  0.604388  0.176729
C  -0.057189 -2.134281 -0.431028
