17
molecule_319
O   0.958171 -2.241471 -2.032444
H   1.082099  1.583553  1.752365
F   1.085174 -0.603124  0.223428
O  -1.096164 -0.029238  0.328329
O   1.177134  1.229076 -1.819493
Cl  1.396580  0.926525 -0.000109
H   2.061317  0.782849 -0.578106
C   0.119697  0.076678  0.485408
N   0.483123 -0.889407 -0.204136
Cl  0.414183 -0.583301 -0.985547
C  -0.707682 -0.080372 -0.036066
N   0.743631  1.184237  1.849302
C  -0.715689  0.477441  1.557430
S  -1.822663 -1.799094 -0.115039
C  -3.335965  0.811727  1.222940
S  -1.007851 -0.299482 -0.375935
C  -0.835095 -0.546596 -1.272326
