20
molecule_055
F  -3.276774 -0.899867 -2.297194
H   2.949754 -0.199048 -0.287746
H  -0.001038 -0.743189 -0.425421
H   1.338779  0.469609 -1.194225
H   1.696707 -0.472099 -0.205101
S  -1.780676 -0.171287  0.395231
C  -3.345147  0.852871  0.862400
C   1.273767 -1.512905 -0.308481
H  -1.259192  1.025007 -1.067034
Cl -1.451133  0.222331 -0.029780
H   5.115819  0.382340  0.692204
F  -1.590639 -1.509769  1.329899
Cl -1.105570  0.034157  1.634100
H  -1.624802  0.957731  0.939409
O   0.396074 -0.723291  0.659175
H  -1.869001  0.629722 -0.838243
H   0.328828  0.885723  0.186456
F   1.508743  0.607009 -1.069006
O   1.331886 -0.828777  0.115701
H   1.363615  0.993732  0.907656
