18
molecule_410
N   0.561009 -0.167883  1.059302
Cl -0.551562  1.843627  0.804809
H   0.764878 -1.948169 -0.193741
Cl -0.307432 -0.426202  2.185899
O  -0.346163  0.737360  0.007610
N   0.405795  0.752070 -0.116479
S   0.192523  0.007950 -0.748335
H  -0.348230 -0.075843 -0.522683
C   1.035706  0.147131 -1.434363
H  -0.794443  2.158745  0.722924
N  -0.315111 -0.959795  1.151965
H   0.375052 -0.391405 -0.164799
O  -0.330568 -2.294130 -0.612743
C   0.172743 -0.142459 -1.212208
N  -0.847879  0.002886 -0.871134
H   1.127050  0.554555 -0.186161
C  -0.761830  0.974769  1.426942
O  -0.031538 -0.773206 -1.296804
