17
molecule_269
F  -2.847088 -1.014889  0.694410
H   1.502668  0.926555 -0.316191
N  -2.104704  0.831624 -0.095320
H   0.081449 -0.481140 -0.210322
F  -0.066937 -0.837531  0.263247
S  -0.278891 -1.035020  0.482202
H   2.577206  1.297932  0.198406
O  -0.732677  0.030418 -0.280111
H   1.612986  0.970164  1.167472
O   1.122424  0.697986 -0.934009
S   1.309921 -0.372504 -0.985032
H  -0.293494  0.938010  0.089604
H  -0.347115  0.112130  0.244439
C  -1.618978 -0.484213 -0.204921
F   1.148762 -0.416430 -0.141958
H  -2.593925  0.134529  0.025943
H   1.528395 -1.297621  0.002140
