15
molecule_154
C   2.050630 -2.201174 -1.074927
H  -1.336941 -0.243825  0.869387
Cl  0.278498  2.874042 -0.240380
N  -1.106032  0.214147  1.416604
H  -0.376250 -2.072993 -0.636684
H  -1.649728  1.536149 -0.328588
H   0.834304 -1.004360  0.541130
H  -0.151451  0.555333 -1.898080
O   0.679330  2.911437  1.584133
H  -0.698560 -0.325030 -1.595560
N   0.058454  0.455428 -0.118398
H  -0.291997 -0.710138 -0.304830
H  -0.174445 -0.810051  0.137271
Cl  1.509975 -3.873058  0.055769
S   0.374212  2.694093  1.593151
