15
molecule_112
H   0.964450  0.772110  0.797255
H   0.869838 -0.781185 -2.333893
H   0.088713 -2.283622 -1.075102
C   0.333308  2.998446  0.887910
N   0.046173 -0.373860  0.533122
H  -0.859706 -1.208427 -0.855019
C   0.965695  1.110763 -2.323771
F  -0.587976 -3.981447  2.784495
H  -0.524586 -2.385377 -1.505031
H  -0.194594 -2.188460  2.345401
H   1.307288  1.324335  1.476183
N  -1.500220  1.960503 -0.831417
H   0.512005  2.201310 -1.252955
O  -1.507253  1.308856  0.764302
H   0.086865  1.526054  0.588518
