19
molecule_298
F   1.759243 -1.305203  0.121814
O  -1.346310  1.127673 -1.662799
S   0.865236  1.274664  0.274807
H  -0.884844  1.425757  0.709388
C   1.229690 -2.924631 -1.824791
H   1.303615 -0.115683 -0.103266
F  -1.865825  0.600095  1.080858
N  -0.313671 -0.629768  0.665294
Cl -0.523142 -2.178306  0.289732
F  -1.800600  0.239068  0.617388
H   1.102833 -0.550277 -0.502489
O   1.999355 -0.865478  0.851533
Cl  0.414596 -1.257683 -1.514071
O  -3.877254  0.830987  1.063464
O  -2.062317  0.137795  1.515362
C  -1.092689  1.978595 -1.884229
N   2.555350  1.451933 -0.169495
O   0.586194  1.717714 -0.449479
C   1.950540 -0.957253  0.920980
