21
molecule_110
S   2.610001  1.490491 -0.226337
O   0.382830 -0.151897  0.530151
H  -0.886953 -1.114789 -0.400118
Cl -1.661745  4.766753  0.300897
H  -0.563930  2.055277  0.262851
O  -1.198539 -0.722083 -0.361504
H  -2.355786 -2.756234 -1.046884
H  -0.134178  1.858541 -0.898480
H   0.284890  1.076588 -0.208320
H   0.239475 -3.857900  0.446033
C  -0.133584 -1.405872 -0.821155
C   0.409935 -1.614334  0.967028
H   1.559689  0.256768  0.392524
S   3.452095  0.548556  0.389455
H   1.038826 -2.470351  0.011304
Cl -1.636213 -2.873432 -0.045797
H  -0.650467 -4.630762  0.577586
S   0.604522  4.819551  0.341006
N   0.063964  2.876412 -0.371973
F  -2.472337  0.978257  0.000911
F   1.047505  0.870461  0.160821
