21
molecule_141
N   0.455473  0.010231  0.012750
Cl  1.122858 -0.581761  0.495151
H   0.701465 -1.752495 -0.373249
H  -0.289054 -1.420024 -0.019925
Cl  1.953043  0.542783 -0.699664
H   0.784940  1.518613 -1.316172
Cl  3.149778 -0.347501  0.155674
Cl  0.826945 -0.441807 -0.385296
H  -0.297231 -1.602384 -0.300575
C   1.803963  0.239251  0.408447
S  -1.980859  0.247877 -0.158883
S  -4.447268  0.870060  0.668686
N   1.032882 -1.143726 -0.227374
H  -1.381658  0.246290  0.961162
H   0.623885  1.621971 -0.026014
H  -0.172956 -0.432120  0.347237
H  -0.907531  0.440448 -0.714996
H  -2.117093 -0.427493  0.075570
F  -4.050119  0.863769  0.039316
C   2.303205  1.337214  0.577017
O   0.885334  0.210804  0.481139
