18
molecule_221
C   1.432855 -0.287149 -0.295635
Cl -0.235914  0.206603  0.684017
H  -0.859149  2.096716 -0.340464
F   0.629631 -1.162807  0.229623
Cl -0.321296 -4.078918  0.100725
S   0.357417  2.836504 -0.397254
S   0.075441 -2.469733  0.085227
O  -1.058908  0.761359  0.041085
H  -0.322073 -2.513034  0.131660
Cl -0.286864 -2.799687  0.194086
O  -0.052590  1.187131 -0.232481
O   0.911442  0.296282 -0.435126
H  -1.068838 -0.151428  0.169294
S   0.493214 -0.374183 -0.021128
F   0.400481  2.082232  0.154493
F   0.031647  0.953181 -0.071713
S  -1.526847 -0.243824  0.100105
O   1.400353  3.660753 -0.096515
