16
molecule_236
N   0.019534  1.195537  0.352298
Cl -1.260546  0.071925  0.374225
Cl -0.840309  0.060058 -0.412985
Cl -0.581536 -3.198674  0.128661
N  -0.478912  3.190842 -0.916284
O   0.828156  1.397159  0.146279
N   1.074080 -0.509428  0.222330
H   0.908427  3.318832 -0.049925
H   0.944029 -2.545622  0.091909
N  -0.449256  0.047986  0.211800
H   3.916005  1.173984  0.051630
C  -0.785330 -3.227846 -0.101961
F  -1.839985  0.026327  0.088698
H   0.821212  0.418699  0.712635
F  -0.970680 -1.556010 -1.157479
O  -1.304890  0.136232  0.258169
