15
molecule_265
C  -0.503291  2.100905 -0.163120
O  -0.316689 -0.125196 -0.188876
H   0.481055 -0.129740 -0.297981
F   0.466167 -0.018511  0.078005
S  -0.973370 -1.513508  0.551670
S   0.895268 -0.073355  0.327875
Cl -0.068797 -1.266733  0.455216
N  -0.693182  0.314800 -0.208726
S   0.249673 -0.723539 -0.080074
Cl -0.425661 -0.963186  0.079687
H   0.584120 -0.011791 -0.152090
N   0.460228 -0.479974 -0.011381
O  -0.809800  2.211979 -0.238420
S   1.255407  0.510066 -0.015952
O  -0.601129  0.167782 -0.135833
