19
molecule_211
O   0.433345 -0.550613 -0.465345
H  -3.180548 -1.380324 -2.115750
H  -0.190153 -1.620158  0.245109
H  -1.025476  0.177190 -0.162587
H   0.014209 -1.027736  0.461997
H   2.656414  0.419872 -0.857904
S  -2.027349  0.109135  1.336315
O  -1.741042  1.268840 -1.217356
Cl -0.476130 -0.680794 -0.958118
O   0.133420 -1.112564  2.085491
O   4.268588 -0.789308 -0.570367
C  -0.587110  1.406331  1.681782
N   0.167476 -0.064440 -1.417109
N   0.582195  0.659937  1.641032
H  -3.188880 -0.438587 -0.979342
C   0.919871  0.587009 -0.500694
Cl -1.513146  0.800955  0.943382
S   2.555798  0.507651  0.467228
H   2.198517  1.727603  0.382236
