17
molecule_354
Cl -1.946056 -4.588462 -0.906301
N   1.286576  0.494262  1.466652
S   0.140198  2.002987  0.536182
F   0.374368 -1.666294  0.333260
H   1.072949 -1.689932 -0.937175
Cl  0.502386  2.389123  0.212119
H   0.577448  1.028974  1.614528
H  -2.302443  2.864016  0.958805
H   0.645678  1.778252  0.910809
C  -1.425019  2.309382  0.340456
F   0.970921 -2.980812  1.014699
S   1.152464 -2.256605 -1.924731
O  -0.903717  1.409942 -1.414251
C   0.070868 -1.772698 -0.522569
F  -1.094832  1.899959  0.763386
F  -0.136404  2.073331 -2.489636
O   1.014614 -3.295425  0.043768
