21
molecule_248
H  -1.317158 -0.961501 -0.277320
C   0.184321  1.098692  0.425075
C   1.841571 -1.156633 -0.856558
N   1.283576  1.660273 -0.881114
H  -2.095451  1.293025 -0.255938
H   0.068606 -1.187398  0.047239
H  -1.432943  1.973201  0.075451
Cl -0.925416  1.583042  0.356763
H   0.704051  3.241310  0.355000
F   1.801085 -2.402415  0.079980
N   0.646248  1.845178 -0.462208
F   1.417272  0.259879  0.560070
C   0.941447  1.155250  0.395102
O   1.371843 -0.707656  0.273572
C  -0.317757  1.469097 -0.332071
N  -1.885997 -1.565662 -0.617609
S  -0.946623 -2.490123  0.429200
H  -2.608866 -0.050208  0.355996
H  -0.012731 -1.694158  0.293339
Cl  2.304006 -1.448738 -0.547550
F  -1.021083 -1.914457  0.583584
