18
molecule_343
H   0.371466 -1.557528  0.073588
O  -2.049064  2.164605 -0.600151
O   1.094653 -0.004370 -1.017152
N   1.152529 -0.295867  0.367708
N  -0.528514 -0.659386 -0.203828
N  -3.438783 -0.829762 -0.465940
C  -2.729472 -0.308784  0.955975
H  -0.741445  1.216127  0.079281
F   1.378832 -1.420897  1.372708
O  -0.368146  0.313440 -0.365045
O  -0.903798 -1.207406  0.368729
F  -1.643807 -1.431924 -1.525720
F  -0.792625  0.797929  0.431628
F   1.475666 -0.192804 -0.567305
H   3.439100  1.149770 -0.486098
H   0.794240  0.442102  0.474743
N   1.289084  1.378545  0.892809
H   2.200085  0.446210  0.214071
