15
molecule_203
O  -0.827772  0.579970  0.724213
Cl -2.645970  1.363386  0.507743
F  -2.017356 -0.964854 -0.359857
F   1.198105 -0.662659  0.010180
F   1.506777  0.103827 -1.343006
H   2.776631  1.027723  0.847652
O   0.455389  0.509821  0.502147
S   1.315073 -0.334570  0.665268
N   0.202128  0.729210 -0.723072
N  -2.088774 -1.305345 -0.771851
H  -1.693274 -0.179257  1.388088
H  -0.879290  0.131080  0.661936
H   2.243919 -0.755516 -0.120482
O   2.185987  0.146735 -0.842228
C  -1.731576 -0.389551 -1.146731
