21
molecule_320
C   0.093665 -1.474511  0.634481
O  -1.495495  0.455766 -0.060818
H  -2.927482  0.831417 -0.781543
H  -2.043514  0.608907  1.060668
H   1.799293 -0.367090 -0.613407
H   0.526695 -0.551940  0.251302
H   0.319501 -0.943563  0.532673
N   1.300767  0.661541  0.049519
N   2.334864  0.156076 -0.062194
S  -0.795680 -0.448780  0.532484
H   2.264733  1.072993  1.414329
S  -1.208306  0.703374 -0.408953
H  -2.249748 -2.148675 -0.344137
O  -0.870949  0.075021 -0.670878
O   1.194303  1.496182 -0.939565
Cl -0.026585  0.480260  0.477600
Cl -1.056971  0.865620 -0.322603
H  -0.547048  0.187994 -0.161725
Cl  2.991475 -0.559149 -0.139949
H  -2.250533 -0.867653 -0.784771
F   2.647014 -0.233791  0.337485
