15
molecule_113
C   0.374596  1.286266 -0.110052
F   1.609986 -1.151717 -0.037747
H   0.883401  0.281735  0.089004
H  -0.530674  0.714158 -0.033723
S   1.145445 -0.008016  0.530991
H   0.003542  4.479740 -0.561563
N   1.379095 -2.674756  0.092587
H   0.186957 -0.330987 -0.427141
H  -1.998989  0.416543 -0.486795
F  -1.486516 -0.802421  0.602700
F  -1.328044 -1.478740  0.161448
S  -0.909283  0.643754  0.441989
H   0.322639  0.855884 -0.177198
Cl -1.276865 -2.927802  0.113050
H   1.624712  0.696359 -0.197550
