15
molecule_057
H  -4.088669 -2.003957  0.981757
H  -0.888256 -0.769760 -0.560342
H  -1.492125  0.367954 -1.067447
C  -0.669990 -0.473696  1.775001
H   1.287912  1.271783  0.044014
N  -0.522286 -0.142888  1.126717
F  -1.214086 -0.414319 -0.053167
O   1.844781  0.745152 -0.197272
H   2.624956  1.438125  0.398310
N   3.236819  0.219619 -0.666985
F  -1.271540 -0.824292  1.580503
H  -1.508244 -1.114867 -2.175260
N  -1.390058 -0.553750 -0.090760
Cl  1.275790  0.221159  0.201524
O   2.774998  2.033738 -1.296592
