20
molecule_138
S   1.284718  2.516585 -0.005444
H   1.466065  0.614529  0.047705
N  -0.685469 -0.312694  0.169555
H   1.376732 -0.513270 -0.293983
C   1.697412 -1.059231 -0.448236
F   0.373635  0.522662 -0.561455
Cl  0.798132 -0.100606  0.134550
N  -0.909241 -1.104617 -0.202398
F  -0.179194 -0.559560 -0.376788
H  -0.496238  1.316391 -0.002421
H  -2.403300 -1.088320  0.494177
Cl -1.573475  0.678295  0.707896
F   1.032234 -1.080428  0.305851
H   0.464495  2.196727  0.112911
H  -0.265552  0.497925 -0.311834
F  -0.938863 -0.329234 -0.009190
O   0.404175 -1.322479  0.315091
S  -0.438433  0.139735  0.099172
H  -0.441433 -2.067199 -0.229102
F  -0.566403  1.054789  0.053943
