18
molecule_140
F  -0.777712 -1.689520 -0.368771
Cl  0.753059  0.855608  0.813357
H   4.239608  3.415561 -0.387021
Cl -0.107606  0.302056 -0.745956
C   0.416193 -0.502607  0.289309
S   1.376106  2.518176  2.285644
F   1.724049  0.474069  1.517274
S  -2.762398 -1.226907 -2.817339
S   0.200093 -0.634793 -0.912870
H  -0.837873 -0.793159  0.163351
C  -0.939441 -2.510063  0.007058
H  -3.263440  1.176220 -0.229440
N   3.893844 -0.449928 -0.003545
F  -0.845518  0.925487  0.935577
F  -0.246843  0.347052 -0.138873
H  -3.914822 -2.034375  0.732675
H   1.345041  1.752648 -0.302990
H  -0.252340 -1.925527 -0.837438
