21
molecule_229
S  -0.156477  1.927904 -1.469919
H   2.129855 -2.573273 -0.426401
O   0.661960 -0.906843  1.397988
O  -1.806655 -0.848371  0.074864
H  -2.620238  1.208680  0.795989
Cl  1.423925  0.057314  1.009336
O   2.293055  1.260048 -0.008524
H   2.696678  1.131052 -0.820103
Cl  0.414356  1.214795 -0.475734
F   1.340257  1.966405 -0.516494
C   1.259442  2.673683  0.370313
C  -2.212317 -1.761311 -0.557664
H  -0.054847 -0.300483 -0.245921
N  -1.656679  2.950042 -2.312850
S   1.424104 -3.562286  0.355919
Cl -0.497972 -0.371981  2.000311
O  -3.550933 -1.369873  0.976277
C   2.865186 -1.158565 -1.341107
O  -1.122463  2.801510  0.933945
O   0.426918 -0.074209  0.161728
O  -3.257157 -4.264238  0.098045
