21
molecule_353
H  -0.573954 -0.854723 -0.385953
F   1.295038  0.474058  0.425290
S  -3.124316 -0.735104  0.108351
H   0.189144  0.420532 -0.509746
C   1.168741 -1.880050 -1.437185
H   0.500594  0.553611  0.279592
H   0.192574 -1.092494  1.746734
N   1.632859 -0.351333 -0.396896
H  -0.883703 -0.475425 -2.572403
S  -1.585633 -1.005703 -0.476306
H   0.058346  0.672270  0.223709
O  -1.633409  1.579142  1.454554
S   0.870814 -0.066949  2.806935
N  -0.241726  1.985442 -0.954327
C   2.431261  0.220107  1.289683
S  -0.365846  1.336558 -0.846107
H  -2.428052  0.726347  2.422697
C  -1.230651 -0.658166 -1.709071
H   3.367208  0.914054 -4.095260
H  -1.170648 -0.335387  1.115930
F   1.531360 -1.426788  1.509778
