21
molecule_288
F   0.716525 -0.422821  0.062631
H  -1.965484 -0.218115 -0.027285
F   2.538001 -0.388446  0.521773
F   4.119727 -0.590007 -0.497176
S  -0.035555 -1.388546  0.336138
O  -0.509438  2.659480 -0.105202
F   0.520044 -0.242289  0.059802
H  -3.612142  1.037445  0.440441
S   0.094399  2.477743 -0.064614
Cl  1.325147  0.350615  0.231286
O  -1.965599 -0.715060  0.420949
H  -0.471166 -2.409613 -1.206073
H  -0.763762 -1.356148 -0.096313
N   0.020633  0.806339  0.718493
H   0.731576 -0.209880 -0.135057
Cl -1.746947 -0.895688  0.649025
N   0.482222  0.557401 -0.729486
N  -1.156966 -1.287723 -1.071265
O   1.956849  0.042469  0.297883
C  -2.019873  0.680450  0.404545
H   1.741809  1.512393 -0.210492
