17
molecule_190
C   1.134625  0.199033  0.147442
O  -0.808032  0.209024 -0.187368
S  -1.019102 -2.422885 -0.090791
F  -2.278655  2.072005  0.264370
H  -1.073687  2.740387 -0.588728
Cl  1.020906 -1.712526 -0.093141
H  -0.454822 -0.037994 -0.131268
H  -0.578293 -1.088565  0.133031
F   0.136220  0.094046 -0.106369
O   0.474253  0.093630  0.269737
H  -0.243712 -2.945619  0.180774
O   1.972160  0.344627 -0.028338
H   0.447898  2.966051 -0.005757
S  -0.225021  2.419195 -0.227016
H  -0.182277 -2.635973  0.163358
H   0.759833  1.001732  0.356083
H   0.917704 -1.296168 -0.056016
