15
molecule_287
C  -1.168990 -0.320874 -0.982416
F  -0.801889 -1.143877  0.079103
F   2.722647  0.304153  0.813836
H   0.822416 -2.459635 -0.218682
H   0.551843 -2.863700  0.505740
O  -2.177284 -1.001424 -0.230914
N   1.112307  4.815354  0.163099
H  -2.311193  0.331898 -0.973176
F  -0.059397 -0.868237  0.187449
S   0.327334  3.312003  0.005802
Cl  1.196597 -0.329191 -0.183087
N   0.808682  0.390171  0.051977
H  -1.784806 -0.645461  0.787843
H   0.974273 -0.823212 -0.267396
H  -0.212540  1.302033  0.260821
