15
molecule_116
H   1.066568  1.791427 -1.587219
H  -3.447862  0.121976 -0.238435
C  -0.170199 -1.499730 -0.838531
H   0.087446 -1.109947  0.283605
H  -1.842674 -1.984823  0.684330
H  -0.183437 -1.996071  0.349154
F  -2.757178  2.049936  0.813071
Cl  4.024881  2.618207  0.584234
C   1.707005 -0.356914 -0.848293
S   1.271116 -1.315600  0.216628
S   1.755449  2.708246 -0.606088
F  -0.362000  0.363826  0.837433
H  -2.196105 -0.446323 -0.008167
S   1.494647 -0.412061  0.098198
O  -0.447656 -0.532151  0.260079
