17
molecule_296
H  -0.121934  0.898803 -0.863732
O   0.466174  1.436444  1.099211
H   0.113841 -0.579850 -1.562774
H   0.462986 -1.734926  0.452308
Cl -1.992979 -0.875869 -1.135760
N   0.801356  0.556490  1.706673
N   0.867689 -4.881401 -1.998580
O  -0.398945 -1.308603  0.330417
H   1.638758 -1.068506  2.454400
O  -0.739324  3.669788 -1.033996
H  -1.355218  3.124038 -0.455197
C   0.821259  0.142140 -0.455013
C   0.376323  0.075156  0.792665
H   0.628396  0.077589  2.158727
C   0.046972 -2.393717 -1.854047
O  -0.432761  0.873792 -1.761747
H  -1.182594  1.988635  2.126445
