20
molecule_108
S   4.776083 -2.878440 -0.081033
H  -1.790679 -1.553002 -0.091969
N  -1.004867 -0.568219  0.194686
H  -2.066204 -0.343744 -0.256782
Cl -0.487347 -0.247443 -0.110585
S  -0.297637  3.038007 -0.258744
C   1.253047  4.175431  0.230731
H   2.734106 -0.845358  0.006374
C  -3.529872  1.352672  0.290744
H  -0.879276 -0.482968 -0.254869
Cl  1.974059  1.434047 -0.111517
Cl -2.426228  1.614377 -0.139847
O   4.687279 -1.544816  0.099337
H  -1.002527  0.626154 -0.056655
C  -1.591348  1.161272 -0.039528
Cl  3.780668 -0.005056  0.075976
C  -2.332268 -1.640949  0.078353
F   1.820901  0.244424  0.107661
H  -3.186733 -2.046123  0.088788
S  -0.431158 -1.490265  0.228879
