15
aromadine
O   0.891374 -0.702457  0.426936
N  -0.213368 -0.878468 -0.225425
H   1.984037 -2.313507  0.322548
Cl -2.085159  0.014643 -0.633975
Cl  3.204147  2.339373  0.827550
O  -0.244101  0.810061  0.322388
H   1.268182 -0.745831 -0.279315
H   1.076994  1.226547 -0.758665
H   1.546961 -0.517063 -0.072418
H  -0.745521 -5.669459  0.558685
H  -2.432116  3.382925  0.858821
C  -3.426897  0.548309 -0.245492
N  -1.071462  2.018835  0.262290
H  -1.346232  1.370383 -0.779447
H   1.593162 -0.884293 -0.584482
