21
aspirin
C   0.117619 -0.080000  0.000000
C  -0.582381  1.132000  0.000000
C  -1.982381  1.132000  0.000000
C  -2.682381 -0.080000  0.000000
C  -1.982381 -1.292000  0.000000
C  -0.582381 -1.292000  0.000000
C   1.497619 -0.080000  0.000000
C   2.137619  1.090000  0.000000
C   1.697619 -1.320000  0.000000
O   2.187619 -2.420000  0.000000
O   3.477619  1.080000  0.000000
O   1.517619  2.170000  0.000000
O  -4.072381 -0.080000  0.000000
H  -0.032381  2.070000  0.000000
H  -2.532381  2.070000  0.000000
H  -3.762381 -0.080000  0.000000
H  -2.532381 -2.230000  0.000000
H  -0.032381 -2.230000  0.000000
H   2.137619 -0.730000  0.890000
H   2.137619 -0.730000 -0.890000
H   3.867619  1.900000  0.000000
