21
aspirin graph decoy
C   0.132619 -0.070000  0.000000
C  -0.602381  1.147000  0.010000
C  -1.964381  1.117000 -0.010000
C  -2.697381 -0.100000  0.012000
C  -1.964381 -1.282000 -0.012000
C  -0.600381 -1.280000  0.010000
C   1.497619 -0.080000  0.000000
C   2.137619  1.090000  0.000000
C   1.697619 -1.320000  0.000000
O   2.187619 -2.420000  0.000000
O   3.477619  1.080000  0.000000
O   1.517619  2.170000  0.000000
O  -4.127381 -0.070000  0.000000
H  -0.032381  2.070000  0.000000
H  -2.532381  2.070000  0.000000
H  -3.807381 -0.090000  0.000000
H  -2.532381 -2.230000  0.000000
H  -0.032381 -2.230000  0.000000
H   2.137619 -0.730000  0.890000
H   2.137619 -0.730000 -0.890000
H   3.867619  1.900000  0.000000
