15
boranol
C   0.939369  1.480407 -1.065017
Cl  3.224965 -1.765652  0.631210
F  -1.283336 -2.700479 -0.753697
H   0.188231 -0.399400 -0.208516
O  -2.408714 -0.962491  0.225695
H   2.297114  0.644415 -0.559131
H  -3.852067 -1.347590  1.821463
Cl  0.121774 -1.351801  0.604287
H   1.533283 -0.726255  0.506045
Cl  3.441134  0.169683 -0.869351
H  -1.094316  1.618623  0.261052
N  -2.422820  1.406261 -0.407352
N   1.048462  0.750145 -0.070892
H  -0.230037 -0.553916  0.034820
H  -1.503042  3.738052 -0.150614
