17
fluoraxane
H  -0.546303  4.410373 -1.471450
F  -0.693477 -2.066338  1.697749
H  -3.274859 -1.104725  0.386691
O   0.540242  2.332831  2.381745
H   0.774346  1.112623  0.196112
N  -2.245755 -4.039078  0.046406
H   4.026049 -1.669345  1.553534
C   0.023954  1.218150  1.208010
H  -1.447865 -2.704342  1.024299
Cl  0.056214 -2.585174 -1.792635
O  -1.045820  3.207786  0.041361
Cl  1.255644  0.134598 -0.759395
Cl -1.316617  1.117909 -1.482295
H  -2.014744 -2.659991 -0.286741
H   2.458479  4.098387 -1.808448
H   0.866873  0.008134  0.025361
Cl  2.583638 -0.811797 -0.960301
