17
frostene
F   1.645966  0.050811 -0.137649
N  -1.261413  0.703244  0.263601
H  -1.537798  0.103230  0.325046
H   0.473996  0.071472  0.167598
Cl  0.157578  0.745007 -0.067713
H   0.578840 -0.875036 -0.043131
H   2.450292 -0.580821 -0.163432
F  -3.366869  0.195118 -0.682768
H   0.507343  0.412154  0.251529
S  -1.646486  0.819931  0.336274
C   0.728571  0.561525  0.178383
O   0.096030 -0.124626 -0.152594
H  -2.149656  0.085129  0.278428
N   1.372394 -2.868652 -0.178279
H   0.438546  0.647141  0.211210
H   1.709377 -0.456142 -0.238041
F  -0.196712  0.510515 -0.348462
