17
glimmerol
C   1.017289  1.396532 -0.278819
F   3.240926 -1.170849  0.117623
Cl  0.306383  1.016376  0.188153
H   1.488990  2.378394 -0.513401
N  -0.073544  1.918017 -0.018944
N   2.441795 -0.409892  0.683791
F  -0.998487 -2.390887  1.078992
H   0.068287 -0.393357  0.348867
F   0.101467  0.735228 -0.128744
H   0.204852 -1.570357 -0.135054
S  -2.502983  0.420561 -0.756881
H  -0.513853 -2.784107  0.448120
N  -1.735892  0.699500 -0.079399
S  -0.882837 -0.604137 -1.226302
S  -2.594705 -3.376476  0.160112
H   1.757857 -0.393660 -0.191344
S  -1.325546  4.529115  0.303229
