15
hydrazone
H  -1.009183  0.704572 -2.623887
Cl  0.760412  2.296779  2.831446
C   0.785460  0.672710  0.789262
H  -1.590319 -1.847928  1.254425
S   1.224106  0.137753  0.036803
N  -1.454095 -0.490992 -2.535140
C  -1.647232 -1.124753 -0.716288
S  -1.582074  0.332108  1.127455
S   0.447738  0.276404 -2.660073
H   0.606055  0.033112  1.073345
N  -0.116329 -1.800242  0.255463
Cl  1.042572  1.076269 -0.291094
H  -0.721304 -0.166374  2.881002
C   0.346380 -1.013116 -0.376259
O   2.907814  0.913698 -1.046459
