15
indalene
C  -1.288640  0.218303  0.951714
F   0.758958 -0.542790  0.142564
C   1.668674  1.678281 -0.200400
H  -0.555707 -1.014645  0.495808
S  -0.076515 -1.427248 -0.554094
O   0.156321  1.045894  0.577488
H  -0.446137  1.633309 -0.590678
F   1.217574  1.235394 -0.877869
H  -2.011402  1.062576  0.622064
H  -0.945769 -5.032048  1.438047
H   0.703053 -0.336550 -0.635366
H  -0.620280  0.333634 -0.091540
N   0.667101  0.083668 -0.369508
H  -0.123339 -2.963862 -1.262022
H   0.896106  4.026083  0.353793
