15
methanol
F   0.869345 -0.220624  1.826276
N  -0.049517  0.006321 -0.777710
H  -0.382942  0.361447 -0.704383
C  -0.804357 -1.304757 -0.590717
S  -0.835329 -0.400186  0.718300
S  -0.216606  1.346086  1.003044
N   0.596236 -0.020732 -1.217915
S   2.028106  2.260252 -0.197053
H   0.005368  1.713507 -0.929220
H   0.737739 -0.262660 -1.875574
C  -1.201765 -2.598438  0.532178
N   0.572853  1.214578  1.306157
H   0.365171 -2.752966  0.679493
S  -0.499826  0.651041  1.013301
F  -1.184476  0.007132 -0.786177
