15
mirazole
C  -1.077716  0.666475 -1.080348
S  -0.899468 -0.641224 -0.579598
Cl  0.343913 -0.019605 -1.238486
H  -0.850777  0.127886  0.876162
Cl  0.516595 -0.656419  0.044496
H   1.097765 -0.225702  0.264384
H  -0.121484 -0.105100  1.136568
H  -0.940951 -0.627066 -0.447788
H   1.705153  1.330166 -0.414740
N  -0.482780 -0.890550 -0.885778
F   0.003836  1.268339 -0.466250
Cl -0.752270 -1.015547  0.702892
O   0.826848  1.305935  1.091692
N   0.345088  0.212987  0.764352
F   0.286248 -0.730575  0.232442
