16
nebularin
F  -1.710540  1.091712  0.346475
H  -0.185507 -2.576257 -0.736734
Cl  2.189901  0.437434 -0.260722
H  -0.723544 -1.953495  0.260581
H  -0.854031  0.990572 -0.565948
N  -3.018553  2.879223 -0.191418
H   0.994400 -0.519979 -0.712615
H  -1.349364  1.179639 -0.288777
C  -0.375619  0.856290  0.248251
H   3.592903  1.572278 -0.035553
C  -0.971389  0.249059  0.228065
N   0.520034 -3.207119  0.991224
C   4.855466 -0.098502 -0.328316
H  -0.689861  2.358940  0.558764
H   0.016807 -1.306446  0.034446
H  -2.291103 -1.953349  0.452278
