21
ortho acetoxybenzoic decoy
C   0.117619 -0.080000  0.000000
C  -0.582381  1.132000  0.000000
C  -1.982381  1.132000  0.000000
C  -2.682381 -0.080000  0.000000
C  -1.982381 -1.292000  0.000000
C  -0.582381 -1.292000  0.000000
C   1.497619  0.040000  0.000000
C   2.082619  1.230000  0.060000
C   1.777619 -1.380000 -0.050000
O   2.322619 -2.530000 -0.020000
O   3.412619  1.195000  0.055000
O   1.402619  2.275000 -0.050000
O  -4.072381 -0.080000  0.000000
H  -0.032381  2.070000  0.000000
H  -2.532381  2.070000  0.000000
H  -3.762381 -0.080000  0.000000
H  -2.532381 -2.230000  0.000000
H  -0.032381 -2.230000  0.000000
H   2.187619 -0.810000  0.960000
H   2.182619 -0.805000 -0.960000
H   3.807619  1.990000  0.035000
