16
phenol
H  -3.755222  1.077418  0.610738
C  -4.710376 -3.339172  0.421201
O  -0.728723  1.399262 -0.941936
N   0.101722  2.178908  0.722630
F   1.194876 -0.303455 -0.102160
S   4.638847 -0.184087 -0.289135
H   0.272006  2.370557 -0.028705
H   1.021768  0.294345  1.203706
H   1.427810 -2.114594 -0.090041
H   0.870464  0.853196  0.108013
Cl  0.755379 -1.440546 -1.002416
S   4.309699  0.330954 -0.375008
H  -3.156147 -0.231583 -0.233469
C  -0.142782 -0.898631  0.675160
O  -2.305280 -0.360566 -0.288557
H   0.205958  0.367993 -0.390023
