15
quantanol
N   0.288830  0.190305 -0.407677
H  -1.295651  0.221382 -0.289658
Cl -1.254023 -1.569228  0.461904
H  -1.330301 -1.477520  0.042364
Cl  0.169480 -0.784448  0.709765
H  -0.602859  3.029933 -0.094319
N   0.805534  1.680715  0.465958
S   0.506790 -1.165435 -1.216248
N  -1.363931 -6.025492  0.435641
F   1.400882  2.264821 -0.039692
H   0.392780  2.303728  0.644295
O   0.283785  0.754279 -0.148227
N   1.417010 -2.391711 -0.613021
C  -0.836890  0.131344  0.608416
N   1.418563  2.837327 -0.559500
