21
salicylate ester decoy
C   0.117619 -0.080000  0.000000
C  -0.582381  1.132000  0.000000
C  -1.982381  1.132000  0.000000
C  -2.682381 -0.080000  0.000000
C  -1.982381 -1.292000  0.000000
C  -0.582381 -1.292000  0.000000
C   1.497619 -0.080000  0.000000
C   1.987619  1.140000  0.080000
C   1.857619 -1.440000 -0.060000
O   2.392619 -2.590000 -0.030000
O   3.337619  1.175000  0.050000
O   1.337619  2.300000 -0.070000
O  -4.147381 -0.115000  0.000000
H  -0.032381  2.070000  0.000000
H  -2.532381  2.070000  0.000000
H  -3.762381 -0.080000  0.000000
H  -2.532381 -2.230000  0.000000
H  -0.032381 -2.230000  0.000000
H   2.277619 -0.850000  0.980000
H   2.272619 -0.845000 -0.980000
H   3.757619  2.040000  0.055000
