16
selenorane
O  -0.959156  2.578195 -0.452469
F  -1.158719  0.873568 -0.519723
H   0.880303 -2.178143 -0.399559
O   0.245458  1.450520  0.252906
O   0.399971 -1.498341 -0.022438
O  -0.842348  0.787680  0.386567
H  -0.059195 -0.783698 -0.004392
N  -0.180243 -0.206816  0.288969
S  -0.825602  1.513886  0.010678
O   0.435245 -0.709071 -0.438161
C  -0.526069  1.777438  0.182853
F   1.491174 -0.495898 -0.222406
F  -0.046149 -1.700579 -0.002928
H  -1.162507 -1.581378 -0.149333
H   2.020677  0.942633  0.566863
H   0.287160 -0.769996  0.522572
