16
sulfarane
H  -1.231797  1.527737  0.015408
H  -0.644362 -1.918591 -0.034441
H   1.049680 -0.199574 -0.244549
C   0.542315 -0.036144 -0.027026
H   1.577595  2.866378  0.181543
C   0.449592 -1.751615 -0.536286
O  -2.885084  2.188019 -0.524344
H  -3.223472  1.359372 -0.295403
C  -0.257390 -0.124063  0.138665
H  -0.176062 -1.602574 -0.012331
Cl  0.936893 -1.811321 -0.080366
H   1.168799 -1.113741 -0.234189
S   0.316929 -2.462336  0.397775
H  -0.343035 -1.242300  0.254277
H   0.603686  4.600213  0.200566
S   2.115713 -0.279458  0.800702
