16
thionyx
C   0.324407  0.463494 -1.140482
N   0.282827  1.226981 -0.016685
F  -0.495374  0.440072 -0.811356
H   1.384729  0.006020 -0.042445
O  -0.479901  1.073718  0.648294
Cl -2.049198  0.722367 -0.475310
Cl -1.018138 -1.327318  0.802935
Cl -1.479499  0.130236 -0.696397
H   0.312076  0.221518  0.129633
H  -0.206845 -0.657474 -0.405413
Cl  0.440733 -0.729776  1.830804
H  -0.869164 -0.013197  0.544485
F   1.266339 -0.650975 -0.032770
Cl  0.478047 -0.889965 -1.114911
H   1.183044 -0.420566 -0.553033
F   0.925919  0.404864  1.332652
