16
verdane
O  -0.967943 -0.010029 -1.415094
O   0.009332 -0.823837  1.978515
S  -1.054232  0.485886  0.718329
F  -0.711967  1.857296 -2.400866
Cl  0.839708 -0.140478  1.649273
H   2.467252  0.954522  1.002094
F   0.224451 -2.546383 -0.867107
S   1.043293  0.640776 -0.953423
H   2.283977  2.238793 -1.087873
H   0.414951 -2.185659 -2.152481
H  -0.428918  0.807806 -1.302247
Cl  0.082119  2.402731  0.712993
C   0.894775  0.376186 -1.375241
O  -2.656623  0.646051  2.424351
N  -0.317302 -5.555919  1.052147
H  -2.122873  0.852261  2.016630
