17
yttrazole
C  -1.470118  1.674270 -0.518877
S   1.758031 -0.296218 -0.249466
H  -0.720102  0.380081 -0.204217
N  -0.365385  0.412687  1.068559
O  -0.732856  0.292204 -0.129979
F   0.603184 -0.123524 -0.650181
H  -0.026937  0.944629  0.251180
S   0.731136  0.073774  0.178664
H   0.336320 -0.428469 -0.155780
H   1.632320  2.213797 -0.059438
S   0.651194  0.724002 -0.053739
S   0.388197  0.586916  0.124542
Cl  0.339894 -1.873135  0.458905
O  -1.336580 -1.998641  0.087249
O  -0.097652  0.025264 -0.196321
H   0.993468 -0.107064 -0.220684
H  -2.684114 -2.500573  0.269581
