16
zephyrene
C  -2.535519 -2.502941  0.004394
F   4.210509  0.859593 -0.006351
F   4.006689  0.698874  0.191731
H   0.889392  0.001640  0.218544
F  -2.098164  0.892801 -0.058351
H   1.179537  2.500067 -0.087474
O  -0.444462 -1.070239  0.400186
S  -1.934547 -1.912258 -0.284657
O   0.549558 -0.094182  0.208898
N  -0.354727  0.279702 -0.045135
S  -1.012664 -1.512406 -0.171894
Cl  1.092423 -0.563818  0.196833
H  -1.411618  0.459168 -0.197262
F   0.524611  1.688839 -0.051188
F  -0.928151  0.792581 -0.292168
F  -1.732869 -0.517420 -0.026103
